LAMMPS (19 Sep 2019)
echo both

include		in.temp
variable	temperature equal 300.0
variable	temperature2 equal 450.0

variable	tempDamp equal 100.0
include		in.pressure
variable        pressure equal 1.
variable        pressureDamp equal 1000.0 # This is 1 ps
include		in.seed
variable	seed equal 745821
units		real
atom_style	full
include		in.box
read_data       ice.data
  orthogonal box = (0.249472 0.548007 0.169594) to (9.23397 8.32881 7.50539)
  2 by 2 by 1 MPI processor grid
  reading atoms ...
  48 atoms
  scanning bonds ...
  2 = max bonds/atom
  scanning angles ...
  1 = max angles/atom
  reading bonds ...
  32 bonds
  reading angles ...
  16 angles
  2 = max # of 1-2 neighbors
  1 = max # of 1-3 neighbors
  1 = max # of 1-4 neighbors
  2 = max # of special neighbors
  special bonds CPU = 6.46231e-05 secs
  read_data CPU = 0.00044451 secs
include 	in.setup
variable	out_freq equal 500
variable	out_freq2 equal 500

timestep	2.0

neigh_modify    delay 10 every 1

include		in.tip4p
# This is TIP4P/Ice

# create groups ###
group ox type 2
16 atoms in group ox
group hy type 1
32 atoms in group hy

# set charges - beside manually ###
set group ox charge -1.1794
  16 settings made for charge
set group hy charge 0.5897
  32 settings made for charge

# ### TIP3P Potential Parameters ###
pair_style lj/cut/tip4p/long 2 1 1 1 0.1577 8.5
pair_coeff 1 1*2 0.000 0.000
pair_coeff 2 2 0.21084 3.1668
bond_style  harmonic
bond_coeff  1 450 0.9572
angle_style harmonic
angle_coeff 1 55 104.52
kspace_style pppm/tip4p 1.0e-4 #final npt relaxation
pair_modify tail yes

thermo          ${out_freq}
thermo          500
thermo_style 	custom step temp pe etotal epair evdwl ecoul ebond eangle elong etail press lx ly lz vol

restart 	${out_freq} restart.lmp restart2.lmp
restart 	500 restart.lmp restart2.lmp


fix 		1 all shake 1e-6 200 0 b 1 a 1
  0 = # of size 2 clusters
  0 = # of size 3 clusters
  0 = # of size 4 clusters
  16 = # of frozen angles
  find clusters CPU = 6.73379e-05 secs
fix             2 all nph iso ${pressure} ${pressure} ${pressureDamp}
fix             2 all nph iso 1 ${pressure} ${pressureDamp}
fix             2 all nph iso 1 1 ${pressureDamp}
fix             2 all nph iso 1 1 1000
fix             3 all temp/csvr ${temperature2} ${temperature2} ${tempDamp} ${seed}
fix             3 all temp/csvr 450 ${temperature2} ${tempDamp} ${seed}
fix             3 all temp/csvr 450 450 ${tempDamp} ${seed}
fix             3 all temp/csvr 450 450 100 ${seed}
fix             3 all temp/csvr 450 450 100 745821

run             200000
PPPM initialization ...
  extracting TIP4P info from pair style
  using 12-bit tables for long-range coulomb (../kspace.cpp:323)
  G vector (1/distance) = 0.343339
  grid = 8 8 6
  stencil order = 5
  estimated absolute RMS force accuracy = 0.0137127
  estimated relative force accuracy = 4.12952e-05
  using double precision KISS FFT
  3d grid and FFT values/proc = 1573 128
Neighbor list info ...
  update every 1 steps, delay 10 steps, check yes
  max neighbors/atom: 2000, page size: 100000
  master list distance cutoff = 10.8154
  ghost atom cutoff = 10.8154
  binsize = 5.4077, bins = 2 2 2
  1 neighbor lists, perpetual/occasional/extra = 1 0 0
  (1) pair lj/cut/tip4p/long, perpetual
      attributes: half, newton on
      pair build: half/bin/newton
      stencil: half/bin/3d/newton
      bin: standard
Per MPI rank memory allocation (min/avg/max) = 7.894 | 7.896 | 7.897 Mbytes
Step Temp PotEng TotEng E_pair E_vdwl E_coul E_bond E_angle E_long E_tail Press Lx Ly Lz Volume 
       0            0   -262.98376   -262.98376   -262.98376    67.247631    1816.9251            0            0   -2147.1565   -1.4468571    -354.4856       8.9845       7.7808       7.3358    512.82082 
     500    437.24967   -197.17259   -156.76848   -197.17259    21.558391    1927.8734            0            0   -2146.6043   -1.3286611     -6523.18    9.2433854    8.0050012    7.5471786    558.44074 
    1000    516.60695   -174.60352   -126.86639   -174.60352    25.930337    1944.9638            0            0   -2145.4976   -1.4333118    877.70605    9.0127136    7.8052337    7.3588363    517.66717 
    1500    483.70242   -193.41624   -148.71966   -193.41624    35.655119    1917.1405            0            0   -2146.2118   -1.4521759    1581.6166    8.9735176     7.771289     7.326833    510.94255 
    2000    420.08158    -192.1592   -153.34151    -192.1592    42.441777    1911.9287            0            0   -2146.5297   -1.5610802    6198.0823    8.7597974     7.586202    7.1523315    475.29812 
    2500    445.20508   -169.84149   -128.70227   -169.84149    38.728221    1937.1132            0            0    -2145.683   -1.4317224    7129.4691    9.0160476     7.808121    7.3615584    518.24186 
    3000    419.60288   -166.93105   -128.15759   -166.93105    11.978883    1966.4137            0            0   -2145.3236    -1.160792   -5415.5846    9.6690616    8.3736474    7.8947412    639.20019 
    3500    453.81913   -174.14732   -132.21211   -174.14732    20.736419    1951.0983            0            0    -2145.982   -1.4073735   -1525.1325     9.067746    7.8528931    7.4037699    527.20794 
    4000    403.38191   -171.80016   -134.52561   -171.80016    31.013271    1941.7417            0            0   -2144.5551    -1.432688     3022.432    9.0140216    7.8063664    7.3599042    517.89258 
    4500    515.82725   -173.05724   -125.39217   -173.05724    22.760897    1949.4104            0            0   -2145.2285   -1.4309672   -327.19043    9.0176333    7.8094942    7.3628531    518.51535 
    5000    464.99859   -172.79044   -129.82219   -172.79044    16.735293    1956.4767            0            0   -2146.0024   -1.4297165   -1973.1993    9.0202622    7.8117709    7.3649996    518.96896 
    5500    530.27232    -180.2564   -131.25653    -180.2564    23.506291    1941.5318            0            0   -2145.2945   -1.2632259   -3276.1016    9.4003088    8.1409007    7.6753058    587.36798 
    6000    399.10202   -179.22207     -142.343   -179.22207    33.319027    1932.0238            0            0   -2144.5649   -1.4741553    4049.0047    8.9286962    7.7324726    7.2902365    503.32448 
    6500    432.66496    -163.1999   -123.21944    -163.1999    14.953608    1967.9129            0            0   -2146.0664   -1.5108507   -220.81776    8.8558165    7.6693569    7.2307306    491.09978 
    7000    422.62752   -173.99364    -134.9407   -173.99364    18.221239      1953.79            0            0   -2146.0049   -1.3716731   -2808.4737    9.1457415    7.9204392    7.4674529    540.92951 
    7500    528.96325    -175.2741   -126.39519    -175.2741    25.004221     1943.633            0            0   -2143.9113   -1.3816209   -1365.5638    9.1237385     7.901384    7.4494876    537.03477 
    8000    385.63034   -175.08019   -139.44598   -175.08019    30.166133    1939.8605            0            0   -2145.1068   -1.5661846     4331.114    8.7502705    7.5779514    7.1445528    473.74904 
    8500    499.65013   -164.49934   -118.32911   -164.49934    24.253904    1955.6556            0            0   -2144.4089   -1.3573711    697.67882    9.1777508      7.94816    7.4935883    546.62903 
    9000    514.96938   -175.62434   -128.03854   -175.62434    9.5016501    1960.7439            0            0   -2145.8699   -1.5023788   -5719.2841    8.8724314    7.6837458    7.2442965    493.86911 
    9500    401.32112   -158.45708   -121.37296   -158.45708    26.361983    1959.6158            0            0   -2144.4349   -1.3004318    1473.2014    9.3097912    8.0625103    7.6013987    570.56317 
   10000    366.30376   -172.07779   -138.22945   -172.07779    19.324137    1954.5161            0            0    -2145.918   -1.6072495    1136.7647    8.6751041    7.5128555    7.0831798    461.64485 
   10500    403.07129   -175.14738   -137.90153   -175.14738    25.691689    1945.4025            0            0   -2146.2416   -1.3119482   -1279.1285    9.2824703    8.0388497    7.5790913    565.55469 
   11000    463.40526   -176.64028   -133.81926   -176.64028    31.402276    1937.5181            0            0   -2145.5606   -1.4516424    3731.1464    8.9746168    7.7722409    7.3277304    511.13032 
   11500     564.5718   -170.31026   -118.14094   -170.31026    19.933012    1954.2893            0            0   -2144.5326   -1.3818342   -1802.3358    9.1232691    7.9009775    7.4491043    536.95188 
   12000    437.60102   -180.19492   -139.75835   -180.19492    24.755074     1940.956            0            0    -2145.906   -1.5207968   -406.06062    8.8364686    7.6526011    7.2149331    487.88798 
   12500    581.80146   -174.56186   -120.80043   -174.56186    25.875654    1945.5341            0            0   -2145.9716   -1.5938926    3989.7617    8.6992693    7.5337832    7.1029106    465.51346 
   13000    329.22899   -160.59792   -130.17548   -160.59792    17.945087    1966.5055            0            0   -2145.0485   -1.2849153   -2238.1886    9.3471159    8.0948344    7.6318741    577.45321 
   13500    425.90933   -181.95205   -142.59585   -181.95205    15.233163    1948.1203            0            0   -2145.3055   -1.4446597   -4930.4903    8.9890531    7.7847431    7.3395176    513.60086 
   14000    401.77136   -169.31647   -132.19074   -169.31647    8.8344397    1967.0366            0            0   -2145.1875    -1.366159   -7033.8893    9.1580296     7.931081    7.4774861     543.1128 
   14500    416.18124   -164.58736   -126.13008   -164.58736    25.220016    1955.6828            0            0   -2145.4902   -1.3919772    1936.5638    9.1010553    7.8817398    7.4309669    533.03923 
   15000    457.32692   -164.39995   -122.14061   -164.39995    13.768314    1967.1137            0            0    -2145.282   -1.5029789    -1930.148    8.8712504     7.682723    7.2433322    493.67191 
   15500    421.11992   -182.26755   -143.35391   -182.26755    29.379319    1934.7966            0            0   -2146.4435   -1.6207349    4282.1864    8.6509766    7.4919605    7.0634798    457.80372 
   16000    494.02481   -173.79269   -128.14227   -173.79269    17.073891    1955.1533            0            0   -2146.0199   -1.2817604   -4788.6725    9.3547786    8.1014704    7.6381306    578.87453 
   16500    464.83342    -177.3805   -134.42751    -177.3805    34.084985    1934.6507            0            0   -2146.1162   -1.3877275    2244.6094    9.1103361    7.8897772    7.4385445    534.67158 
   17000    494.90428    -176.5589   -130.82721    -176.5589    17.046839    1952.8616            0            0   -2146.4673    -1.416239   -4498.1714    9.0487853    7.8364726    7.3882886    523.90767 
   17500    431.93549   -198.38444   -158.47139   -198.38444    28.654422    1919.1743            0            0   -2146.2132   -1.5398917   -1415.9511    8.7997919    7.6208382    7.1849868    481.83808 
   18000    442.55177   -183.00523   -142.11119   -183.00523    25.404115    1937.9485            0            0   -2146.3579   -1.5840197    2418.2796    8.7173057    7.5494031    7.1176372    468.41494 
   18500    383.59458   -172.13018   -136.68408   -172.13018    20.208165    1953.5766            0            0    -2145.915   -1.3488874   -1781.9259    9.1969515    7.9647882    7.5092656      550.067 
   19000     397.6499   -168.34383   -131.59895   -168.34383    23.161351     1953.965            0            0   -2145.4702   -1.4406749    1151.6008    8.9973332    7.7919138    7.3462782    515.02145 
   19500    520.99544     -171.621   -123.47836     -171.621    24.084057    1947.9751            0            0   -2143.6802   -1.3861779    725.52156    9.1137296    7.8927161    7.4413154    535.26929 
   20000    415.35071   -178.56343    -140.1829   -178.56343    55.635513    1911.1504            0            0   -2145.3493   -1.3313625    10775.725    9.2371292    7.9995832    7.5420705     557.3076 
   20500    467.66711   -159.68172   -116.46689   -159.68172    7.8386786    1977.5627            0            0   -2145.0831   -1.3365765   -5801.8953    9.2251024    7.9891676    7.5322506    555.13357 
   21000    383.04728   -166.47516   -131.07964   -166.47516     15.94132    1963.9729            0            0   -2146.3894   -1.3634965   -2901.5174    9.1639869    7.9362401    7.4823501    544.17337 
   21500    410.08698   -174.59393    -136.6998   -174.59393     14.11275     1956.816            0            0   -2145.5227   -1.1853646   -6078.7516    9.6017814     8.315381    7.8398072    625.94958 
   22000     533.5958   -184.38603   -135.07905   -184.38603    22.064617    1939.9327            0            0   -2146.3833   -1.4852918   -1122.7617    8.9063249    7.7130984    7.2719704    499.55063 
   22500    517.43837   -178.81301   -130.99906   -178.81301    30.814094    1934.3282            0            0   -2143.9553   -1.5274008    2643.5731    8.8237148    7.6415561    7.2045197    485.77851 
   23000    477.78082   -182.70332   -138.55393   -182.70332    32.373263    1930.2329            0            0   -2145.3095   -1.3511243     873.7449    9.1918732    7.9603904    7.5051192    549.15632 
   23500    446.21105   -178.30543   -137.07325   -178.30543    13.440405    1953.8474            0            0   -2145.5932   -1.4975992   -4388.7016    8.8818601    7.6919113     7.251995    495.44528 
   24000      418.359   -175.23789   -136.57938   -175.23789    17.454538    1952.7392            0            0   -2145.4316   -1.4252497   -3391.4462    9.0296755    7.8199231    7.3726855    520.59541 
   24500    361.26502   -169.50847   -136.12573   -169.50847    18.977677    1957.0157            0            0   -2145.5018   -1.3747008   -2029.1373    9.1390222    7.9146201    7.4619666    539.73814 
   25000    505.17865   -171.18177   -124.50068   -171.18177    34.830207    1938.4955            0            0   -2144.5075   -1.5486886    7843.3389    8.7830988    7.6063816    7.1713569    479.10115 
   25500    443.71642   -187.94441   -146.94274   -187.94441    26.251025    1930.9184            0            0   -2145.1138   -1.4483174   -2631.5185    8.9814794    7.7781841    7.3333337    512.30377 
   26000    579.60429   -147.36046   -93.802065   -147.36046    8.3815839    1988.4705            0            0   -2144.2125    -1.225822   -3439.6285    9.4949641    8.2228746    7.7525915    605.29055 
   26500    487.91694   -177.77989   -132.69387   -177.77989    24.886578    1943.1406            0            0    -2145.807    -1.564629     2054.217    8.7531695     7.580462    7.1469198    474.22006 
   27000    478.41717   -161.30531   -117.09712   -161.30531    19.131911    1964.4612            0            0   -2144.8984   -1.4854215    1879.9123    8.9060657     7.712874    7.2717588    499.50702 
   27500    431.27725   -169.45284   -129.60062   -169.45284    30.498509    1945.4115            0            0   -2145.3629    -1.401197    2946.6931    9.0810498    7.8644146    7.4146325    529.53185 
   28000    466.81565   -161.09364   -117.95749   -161.09364    20.370231    1964.2542            0            0    -2145.718   -1.4540099    2227.5633    8.9697433    7.7680203    7.3237512     510.2981 
   28500    461.68014   -178.36142   -135.69982   -178.36142    26.825394    1940.9978            0            0   -2146.1846   -1.4150462    72.353579    9.0513271     7.838674     7.390364     524.3493 
   29000    496.09202   -164.85871   -119.01728   -164.85871    20.715383    1959.0832            0            0   -2144.6573   -1.4802438    76.105996    8.9164377    7.7218564    7.2802275    501.25423 
   29500    529.22235   -173.88283   -124.97998   -173.88283    21.666476    1949.7197            0            0    -2145.269   -1.4624991   -310.55961    8.9523543     7.752961    7.3095532    507.33602 
   30000    469.10518   -172.45047   -129.10275   -172.45047    33.050629    1939.4542            0            0   -2144.9552   -1.2512449    2436.9477    9.4302171    8.1668021    7.6997258     592.9922 
   30500    526.48049   -168.65785   -120.00836   -168.65785    15.005565    1962.1144            0            0   -2145.7778   -1.3317923   -2714.7672    9.2361356    7.9987227    7.5412592    557.12777 
   31000    397.53201   -175.23821   -138.50422   -175.23821    21.577949    1949.2112            0            0   -2146.0274   -1.4208637   -2980.0377    9.0389571    7.8279612     7.380264    522.20243 
   31500    380.77785   -180.85453   -145.66871   -180.85453    17.351885     1946.941            0            0   -2145.1474    -1.500212   -3156.8586    8.8767009    7.6874433    7.2477825    494.58241 
   32000    426.95007   -157.73859   -118.28622   -157.73859   -1.1542895    1987.9531            0            0   -2144.5374   -1.3061339   -9566.6602    9.2962236    8.0507604    7.5903208    568.07227 
   32500    417.96374   -154.96908   -116.34709   -154.96908    22.776401    1966.7223            0            0   -2144.4678   -1.5983054    4437.0999    8.6912559    7.5268434    7.0963677    464.22821 
   33000    375.22675   -182.19919   -147.52632   -182.19919    20.546532    1943.4404            0            0   -2146.1861   -1.3932906    -3474.841    9.0981948    7.8792625    7.4286312    532.53676 
   33500    456.08775   -156.78203   -114.63719   -156.78203    17.494205    1970.7406            0            0   -2145.0168   -1.3473423   -762.02002    9.2004659    7.9678318    7.5121351    550.69783 
   34000    500.45615   -172.45268   -126.20798   -172.45268     11.99711    1961.4656            0            0   -2145.9154    -1.545709   -3107.7173    8.7887387    7.6112658    7.1759618    480.02468 
   34500    353.91928   -180.87745    -148.1735   -180.87745    22.640303    1942.3105            0            0   -2145.8283   -1.5660359    8.0822254    8.7505475    7.5781913    7.1447789    473.79403 
   35000    466.49432   -169.32641   -126.21995   -169.32641    27.551219    1949.4626            0            0   -2146.3403   -1.5089008    3346.3019    8.8596297    7.6726592     7.233844    491.73442 
   35500    415.92532   -171.85632    -133.4227   -171.85632    18.672141    1955.1122            0            0   -2145.6407   -1.5320209   -1674.8484     8.814836    7.6338668    7.1972702    484.31355 
   36000    503.74631   -169.60307   -123.05433   -169.60307    17.013137    1959.4966            0            0   -2146.1128    -1.495763   -1756.1831    8.8854932    7.6950577    7.2549614    496.05351 
   36500    496.58332   -174.63423    -128.7474   -174.63423    36.233902    1935.5825            0            0   -2146.4506   -1.3995728    3201.0631    9.0845614    7.8674556    7.4174996    530.14638 
   37000    441.96932   -166.04237   -125.20214   -166.04237    28.346506     1951.746            0            0   -2146.1348    -1.570174    5386.5069    8.7428535    7.5715281    7.1384968    472.54537 
   37500    463.67415   -173.40407   -130.55821   -173.40407    24.288381    1948.1813            0            0   -2145.8737   -1.5453494     1910.736    8.7894204    7.6118562    7.1765185    480.13639 
   38000    433.01898   -163.16017     -123.147   -163.16017    35.151529    1947.5856            0            0   -2145.8973   -1.4116429    6397.3307     9.058595    7.8449681    7.3962982    525.61342 
   38500    569.22533   -172.00892   -119.40959   -172.00892    31.290748    1942.5899            0            0   -2145.8896   -1.5429819    6059.6907    8.7939134    7.6157473     7.180187    480.87308 
   39000    385.37131    -141.1385   -105.52822    -141.1385    23.037426    1979.4319            0            0   -2143.6078   -1.4151228    4789.2931    9.0511637    7.8385324    7.3902306    524.32089 
   39500    377.58289   -155.59403   -120.70344   -155.59403    36.790856    1952.4891            0            0    -2144.874   -1.3640186    6040.9785    9.1628175    7.9352274    7.4813954    543.96508 
   40000    455.53249     -171.354   -129.26047     -171.354    36.962068    1937.9891            0            0   -2146.3051   -1.6934387    12248.688    8.5253582    7.3831718     6.960913    438.14899 
   40500    461.54192   -163.59218   -120.94334   -163.59218    18.480625     1963.386            0            0   -2145.4588   -1.3844477   -104.30429    9.1175246    7.8960026    7.4444139    535.93823 
   41000    373.34793    -171.4879   -136.98864    -171.4879    15.563159    1958.0593            0            0   -2145.1104   -1.3893685    -4036.572    9.1067479    7.8866697    7.4356148    534.04009 
   41500    413.72767   -174.36213   -136.13158   -174.36213    30.544328    1939.2914            0            0   -2144.1979   -1.4021602    2306.7521    9.0789701    7.8626135    7.4129344    529.16812 
   42000    403.36311   -181.97702    -144.7042   -181.97702    24.488376    1939.4181            0            0   -2145.8835   -1.4586995   -1719.8872    8.9601205    7.7596867    7.3158943    508.65751 
   42500     399.5931   -184.19024   -147.26579   -184.19024     30.28194    1931.8086            0            0   -2146.2807   -1.4500756    830.17654    8.9778481    7.7750393    7.3303688    511.68262 
   43000    360.90038    -162.1475   -128.79846    -162.1475    9.0553111    1973.1502            0            0   -2144.3531   -1.3333753   -5558.7359     9.232479    7.9955559    7.5382736    556.46633 
   43500    508.10805   -155.77584   -108.82406   -155.77584    24.402199    1964.7789            0            0   -2144.9569   -1.3514963     2039.184    9.1910298    7.9596599    7.5044306    549.00517 
   44000    462.73311   -171.67996   -128.92106   -171.67996    25.879947    1947.6613            0            0   -2145.2213   -1.5040282    3005.9325    8.8691869     7.680936    7.2416474     493.3275 
   44500    387.45072   -173.78563   -137.98321   -173.78563    26.527225    1944.9704            0            0   -2145.2833   -1.5255107    1926.7575    8.8273574    7.6447106    7.2074938    486.38037 
   45000    581.54203    -176.6823   -122.94485    -176.6823    19.249686    1949.7544            0            0   -2145.6864   -1.5017925   -695.17154    8.8735858    7.6847455    7.2452391     494.0619 
   45500    473.30295   -192.18209   -148.44648   -192.18209    23.610039    1930.4836            0            0   -2146.2757   -1.4839188   -2502.0806     8.909071    7.7154766    7.2742126    500.01286 
   46000     450.4672    -170.0554   -128.42992    -170.0554    15.384007    1960.3097            0            0   -2145.7491   -1.4616932   -1693.0515    8.9539992    7.7543856    7.3108963    507.61572 
   46500    456.57774   -171.31964   -129.12952   -171.31964    23.795844    1950.7578            0            0   -2145.8733   -1.3987877   -286.90578    9.0862608    7.8689274    7.4188872    530.44395 
   47000    479.49125   -182.35535   -138.04791   -182.35535    22.599215    1940.8965            0            0    -2145.851    -1.462107   -901.64478    8.9531545    7.7536541    7.3102066    507.47208 
   47500     442.2104   -181.99779   -141.13529   -181.99779    26.845193    1937.1322            0            0   -2145.9752   -1.4469004   -564.78431    8.9844105    7.7807225    7.3357269    512.80549 
   48000    453.21207   -168.04836   -126.16925   -168.04836    32.771421    1944.3679            0            0   -2145.1877    -1.347138    4201.9748     9.200931    7.9682346    7.5125148    550.78135 
   48500    545.01836   -169.00559   -118.64311   -169.00559    16.380718    1959.5283            0            0   -2144.9146   -1.4224004    -2132.361    9.0357007    7.8251411    7.3776051    521.63824 
   49000    518.81748   -163.27135   -115.32997   -163.27135    24.573532    1957.9928            0            0   -2145.8377    -1.321405    644.25479    9.2602735    8.0196267    7.5609677    561.50722 
   49500    505.22603   -173.71142   -127.02596   -173.71142    24.260154    1947.5397            0            0   -2145.5113   -1.5672719    2768.0926    8.7482466    7.5761987    7.1429003    473.42039 
   50000     448.3431   -167.21399   -125.78479   -167.21399     16.07146    1962.0023            0            0   -2145.2877   -1.4952136   -1410.6313    8.8865814        7.696    7.2558499    496.23578 
   50500    411.81061   -168.40951    -130.3561   -168.40951    21.141917    1955.2314            0            0   -2144.7829   -1.3939775   -1537.3193    9.0967001    7.8779681    7.4274108    532.27435 
   51000    388.89826    -179.1202   -143.18402    -179.1202    19.275294    1947.0678            0            0   -2145.4633   -1.3851863   -3571.6317    9.1159038     7.894599    7.4430906    535.65247 
   51500    361.03802   -184.55453   -151.19277   -184.55453    19.785996    1940.6275            0            0    -2144.968    -1.453463   -3697.7069    8.9708682    7.7689945    7.3246697    510.49011 
   52000    536.13346   -180.61391   -131.07244   -180.61391    38.701359    1926.4909            0            0   -2145.8062   -1.5051175    7916.7148    8.8670468    7.6790826       7.2399    492.97047 
   52500    459.37243   -172.27238   -129.82402   -172.27238    15.475527    1958.2354            0            0   -2145.9833   -1.5049643   -2571.2133    8.8673476    7.6793431    7.2401457    493.02065 
   53000    383.48701   -180.96004   -145.52388   -180.96004     31.90096    1932.6931            0            0   -2145.5541   -1.4232817    1115.1905    9.0338355    7.8235258    7.3760822    521.31527 
   53500     501.0687   -163.33397   -117.03266   -163.33397    25.738573    1956.3732            0            0   -2145.4457   -1.5499257    4549.0484    8.7807612    7.6043571    7.1694483    478.71872 
   54000    416.94524   -171.03529   -132.50742   -171.03529    19.486039    1955.7209            0            0   -2146.2422   -1.4614929    -1679.058    8.9544084    7.7547399    7.3112304    507.68532 
   54500    437.09671   -192.50939   -152.11942   -192.50939    12.956873     1940.617            0            0   -2146.0832   -1.5555824    -6664.205    8.7701049    7.5951285    7.1607475    476.97792 
   55000    435.77222   -157.37195   -117.10437   -157.37195    27.151942    1960.4638            0            0   -2144.9877   -1.3834028    3049.2971    9.1198195      7.89799    7.4462877    536.34302 
   55500    408.75662   -175.12332   -137.35212   -175.12332    18.851647    1951.2107            0            0   -2145.1857   -1.4282623   -3533.4728    9.0233223    7.8144211    7.3674983    519.49734 
   56000    407.75874    -189.3439   -151.66491    -189.3439    28.348898    1927.5286            0            0   -2145.2213   -1.6352582    1793.0019    8.6252896    7.4697148    7.0425064     453.7378 
   56500    348.55927   -180.69249   -148.48383   -180.69249    30.085436      1935.17            0            0   -2145.9479   -1.6153315    3802.4647    8.6606119    7.5003049     7.071347    459.33511 
   57000    447.32967   -186.80951   -145.47396   -186.80951     39.57704    1919.9962            0            0   -2146.3827   -1.4133233    3651.1659    9.0550036    7.8418579    7.3933659    524.98851 
   57500    498.71944   -172.98839   -126.90417   -172.98839    28.438709    1944.5788            0            0   -2146.0059    -1.451187     2762.337    8.9755555    7.7730539    7.3284969    511.29074 
   58000    514.03957   -169.75654   -122.25666   -169.75654    47.048483    1929.0369            0            0   -2145.8419   -1.4792187    12843.626    8.9184969    7.7236397    7.2819088    501.60159 
   58500    474.63763   -179.96543   -136.10649   -179.96543    26.059973     1940.171            0            0   -2146.1964   -1.5584596    1945.0445    8.7647046    7.5904517    7.1563381    476.09734 
   59000    426.74748    -175.9286   -136.49495    -175.9286    22.166251     1948.166            0            0   -2146.2609   -1.3872877   -1353.3222    9.1112988    7.8906109    7.4393306     534.8411 
   59500    376.30875   -165.92607   -131.15322   -165.92607    6.8365749    1972.8521            0            0   -2145.6148   -1.4590747   -5653.9828    8.9593524    7.7590215    7.3152671     508.5267 
   60000    505.96293   -148.06155   -101.30799   -148.06155    23.351988    1974.3818            0            0   -2145.7953    -1.387531    4578.1053    9.1107662    7.8901497    7.4388957    534.74731 
   60500    370.54053   -184.11812   -149.87828   -184.11812    26.050917    1935.9235            0            0   -2146.0925   -1.4875498   -1170.6949    8.9018163    7.7091939    7.2682892    498.79237 
   61000    421.65512    -160.3034   -121.34031    -160.3034    17.563335    1966.8817            0            0   -2144.7484   -1.4062376   -119.59041    9.0701868    7.8550069    7.4057629     527.6338 
   61500    419.46108   -150.20981   -111.44946   -150.20981    29.954247    1965.3391            0            0   -2145.5032   -1.3719785    5961.1715    9.1450629    7.9198515    7.4668988    540.80912 
   62000    394.49868   -169.97511   -133.52141   -169.97511    22.312076    1953.7987            0            0   -2146.0859   -1.5036446    77.644136     8.869941     7.681589    7.2422631    493.45334 
   62500    505.77116   -172.23713   -125.50129   -172.23713    16.821133    1956.7663            0            0   -2145.8246   -1.5108519   -2043.8497    8.8558142    7.6693549    7.2307287    491.09939 
   63000    417.10806   -169.14173   -130.59882   -169.14173    23.443805    1953.6111            0            0   -2146.1967   -1.4772635    1616.9376    8.9224298    7.7270457      7.28512    502.26548 
   63500    515.73175   -172.89763   -125.24138   -172.89763    22.487532    1950.6457            0            0   -2146.0309   -1.4619827    173.75272    8.9534083    7.7538738    7.3104138    507.51523 
   64000    412.29599   -160.33477   -122.23651   -160.33477    5.7412254    1979.3577            0            0   -2145.4337   -1.4678101   -4980.9176    8.9415438    7.7435989    7.3007265    505.50032 
   64500    475.71183    -161.1187    -117.1605    -161.1187    10.619624    1974.0619            0            0   -2145.8002    -1.313118   -5022.9366    9.2797131    8.0364619      7.57684    565.05088 
   65000    456.35134   -174.57516   -132.40596   -174.57516    27.458966    1943.8135            0            0   -2145.8476   -1.4494362    274.32263    8.9791679    7.7761823    7.3314464    511.90832 
   65500    678.45829   -179.20656   -116.51355   -179.20656    20.717435    1945.8046            0            0   -2145.7286   -1.5144112   -408.79279    8.8488709    7.6633419    7.2250595    489.94518 
   66000    379.18691   -186.20236   -151.16355   -186.20236    14.117175    1945.1728            0            0   -2145.4923   -1.4550487   -5978.6453    8.9676081    7.7661712    7.3220079    509.93377 
   66500    517.23811   -192.38262   -144.58718   -192.38262     26.86039    1926.7398            0            0   -2145.9829   -1.3682907   -1619.9457    9.1532713    7.9269602     7.473601    542.26668 
   67000     432.1059   -171.41181   -131.48302   -171.41181    19.523907    1954.7024            0            0   -2145.6382    -1.515277   -1055.3519    8.8471852     7.661882    7.2236831    489.66523 
   67500    521.44737   -172.85005   -124.66565   -172.85005    29.206637    1944.5296            0            0   -2146.5863   -1.5580127    4414.1058    8.7655424    7.5911773    7.1570222    476.23389 
   68000    505.62193   -155.77652   -109.05447   -155.77652     15.70813    1973.0799            0            0   -2144.5646   -1.4724438    1004.5666    8.9321543    7.7354674      7.29306    503.90952 
   68500    482.43933   -170.75628   -126.17642   -170.75628    11.972547    1963.3605            0            0   -2146.0893   -1.5607408    -3711.023    8.7604323    7.5867518    7.1528498    475.40147 
   69000     372.2983   -177.90703   -143.50477   -177.90703    23.527512    1944.1529            0            0   -2145.5874   -1.5169544   -319.00771    8.8439231    7.6590569    7.2210197    489.12379 
   69500      463.881    -176.6738   -133.80882    -176.6738    14.645873    1954.2812            0            0   -2145.6009   -1.6143166     -2555.18    8.6624265    7.5018763    7.0728285    459.62389 
   70000    431.78295    -177.0987   -137.19975    -177.0987    25.947939    1942.5547            0            0   -2145.6013   -1.4803006    1063.0516    8.9163238    7.7217577    7.2801344    501.23501 
   70500    397.25914   -157.92615   -121.21737   -157.92615    10.898672    1977.2515            0            0   -2146.0763   -1.2497237   -3961.3283    9.4340418    8.1701144    7.7028487    593.71401 
   71000    494.62165   -169.11833   -123.41277   -169.11833    15.849399    1960.2405            0            0   -2145.2083   -1.3209457   -4086.2841    9.2613466    8.0205561    7.5618439    561.70246 
   71500    463.38584   -150.71876   -107.89954   -150.71876    11.962373    1980.2918            0            0   -2142.9729   -1.3302114   -2639.5011     9.239793    8.0018901    7.5442455    557.78989 
   72000    511.52502   -178.91512    -131.6476   -178.91512    31.523491    1935.1169            0            0   -2145.5555   -1.4377552    2061.9414    9.0034195    7.7971847    7.3512476    516.06732 
   72500    473.24769    -180.9934   -137.26289    -180.9934    26.723865    1938.2725            0            0   -2145.9898   -1.3678604   -1783.9779     9.154231    7.9277913    7.4743846    542.43726 
   73000    325.09206   -171.06128   -141.02111   -171.06128    16.138049    1956.4579            0            0   -2143.6573   -1.3965294   -3435.7826    9.0911558    7.8731665    7.4228839     531.3017 
   73500    549.18253   -185.72747    -134.9802   -185.72747    23.503202    1936.2189            0            0   -2145.4495   -1.4346483   -2888.9488     9.009914    7.8028092    7.3565504    517.18492 
   74000    438.37445   -167.36199   -126.85395   -167.36199    20.711461    1958.1999            0            0   -2146.2733   -1.4443754    481.10428    8.9896427    7.7852537     7.339999    513.70194 
   74500    442.42271   -171.88303   -131.00091   -171.88303    24.752891    1948.8431            0            0   -2145.4791   -1.3955191    78.062393    9.0933491    7.8750661    7.4246748    531.68634 
   75000    310.00286   -182.59845    -153.9526   -182.59845    21.880311    1940.9919            0            0   -2145.4707   -1.2820351    -4077.715    9.3541104    8.1008918    7.6375851     578.7505 
   75500    449.73108   -168.51892   -126.96147   -168.51892    20.437339    1956.8996            0            0   -2145.8559   -1.5983954    2139.9929    8.6910928    7.5267021    7.0962345    464.20207 
   76000    489.61816   -174.36563   -129.12241   -174.36563    30.622453    1940.9538            0            0   -2145.9419   -1.5181343    3966.4213    8.8416314    7.6570722    7.2191485    488.74364 
   76500    342.07769   -163.31564   -131.70591   -163.31564    8.3577653    1974.3083            0            0   -2145.9817   -1.4410967   -4851.2888    8.9964551    7.7911534    7.3455613    514.87068 
   77000    429.02536   -170.33133   -130.68719   -170.33133    12.407655    1963.1207            0            0   -2145.8596   -1.2839195   -4747.1406    9.3495317    8.0969265    7.6338466    577.90106 
   77500    480.96139   -159.43854   -114.99524   -159.43854    1.9937963    1983.3741            0            0   -2144.8064   -1.3019725   -8340.6235    9.3061173    8.0593286    7.5983989    569.88795 
   78000    440.30124   -163.16291   -122.47683   -163.16291    13.875496    1968.6331            0            0   -2145.6716    -1.636156   -214.83302    8.6237118    7.4683484    7.0412182    453.48884 
   78500    571.84118   -179.54677   -126.70572   -179.54677    41.223912    1925.6315            0            0   -2146.4022   -1.4620523    6917.4242    8.9532661    7.7537507    7.3102977    507.49105 
   79000    342.46518   -163.53035   -131.88482   -163.53035    11.602252     1970.043            0            0   -2145.1756   -1.2629578   -5370.1153     9.400974    8.1414768     7.675849    587.49269 
   79500    462.27777   -174.30559   -131.58876   -174.30559     15.75621    1955.7881            0            0   -2145.8499   -1.5291724    -1647.712    8.8203059    7.6386038    7.2017363    485.21571 
   80000    506.01658   -166.07097   -119.31245   -166.07097    9.4651863    1969.8428            0            0    -2145.379   -1.4691896   -4197.9675    8.9387444    7.7411745    7.2984408    505.02568 
   80500     423.5606   -157.90528   -118.76611   -157.90528    29.572695    1957.1077            0            0   -2144.5856   -1.3531362     3589.662    9.1873154    7.9564432    7.5013978    548.33982 
   81000    382.32217   -171.42511   -136.09659   -171.42511    21.355784    1953.1394            0            0   -2145.9203   -1.5225422    950.85605    8.8330906    7.6496757     7.212175    487.32868 
   81500    584.76931   -170.08861   -116.05294   -170.08861    13.525798    1961.9892            0            0   -2145.6036   -1.4258711   -2305.2318    9.0283635    7.8187869    7.3716144    520.36853 
   82000    365.71796   -152.33115   -118.53694   -152.33115    30.105169    1962.4668            0            0   -2144.9032   -1.2682207     3454.612    9.3879519    8.1301994    7.6652165    585.05471 
   82500      434.463   -165.25051   -125.10391   -165.25051    22.517263    1958.0061            0            0   -2145.7738   -1.3202925   -942.50285    9.2628739    8.0218787    7.5630909    561.98038 
   83000    414.86203   -152.93372   -114.59834   -152.93372    22.337537    1969.0615            0            0   -2144.3328   -1.3803483    1469.9989    9.1265416    7.9038116    7.4517763    537.52989 
   83500    447.29339   -179.76416   -138.43196   -179.76416    23.450479    1941.7945            0            0   -2145.0091     -1.34785   -3110.1081    9.1993104    7.9668311    7.5111916    550.49037 
   84000    407.43777   -164.65544    -127.0061   -164.65544    11.008883    1970.0276            0            0   -2145.6919   -1.3293686   -4914.3708    9.2417451    8.0035807    7.5458394     558.1435 
   84500    317.64161   -167.68784   -138.33613   -167.68784    16.929331    1960.6378            0            0   -2145.2549   -1.6066553    -226.2475    8.6761735    7.5137816     7.084053     461.8156 
   85000    478.66378   -163.22513   -118.99415   -163.22513    10.081153    1971.0215            0            0   -2144.3278   -1.4139432   -4372.5321    9.0536801    7.8407117    7.3922852    524.75834 
   85500    502.07258    -172.8626   -126.46852    -172.8626     13.21176    1958.8808            0            0   -2144.9551   -1.3514616   -4388.3031    9.1911085    7.9597281    7.5044948    549.01927 
   86000    478.40816   -177.22936     -133.022   -177.22936    25.740526    1942.3815            0            0   -2145.3514   -1.3976793    127.13285    9.0886621     7.871007    7.4208478    530.86462 
   86500    480.64364   -176.12981   -131.71588   -176.12981    17.006563    1952.0153            0            0   -2145.1517   -1.4482915   -3808.8358     8.981533    7.7782305    7.3333775    512.31294 
   87000    376.67021   -175.06746   -140.26121   -175.06746    18.949503    1951.6175            0            0   -2145.6345   -1.4118615   -2663.2617    9.0581275    7.8445633    7.3959165    525.53204 
   87500    479.42522   -177.35451   -133.05317   -177.35451    20.114078    1948.1577            0            0   -2145.6263   -1.5291707   -1069.3743    8.8203091    7.6386066    7.2017389    485.21623 
   88000    523.27441   -157.29173    -108.9385   -157.29173    5.0841384    1983.8693            0            0   -2146.2452    -1.411356   -5435.8014    9.0592089    7.8454998    7.3967994    525.72028 
   88500    473.52028   -175.08443   -131.32874   -175.08443    26.898587    1943.8497            0            0   -2145.8327   -1.4574502    1403.8708      8.96268    7.7619033     7.317984    509.09353 
   89000    502.61216   -173.99357   -127.54964   -173.99357    18.514208    1952.2291            0            0   -2144.7368   -1.6273515    538.91881    8.6392361    7.4817929    7.0538937    455.94236 
   89500      391.937   -170.74106   -134.52408   -170.74106     28.81714    1945.4052            0            0   -2144.9634   -1.4755038    2638.2686    8.9259755    7.7301163     7.288015    502.86451 
   90000    535.59413   -174.26208   -124.77044   -174.26208    32.212575    1938.6313            0            0    -2145.106   -1.4118261    2623.3278    9.0582033    7.8446288    7.3959783    525.54522 
   90500    459.70677   -180.07432   -137.59507   -180.07432    9.9582598     1955.995            0            0   -2146.0276     -1.39256   -7515.2103    9.0997856    7.8806402    7.4299301    532.81616 
   91000    311.11787   -167.05636   -138.30748   -167.05636    22.560691    1955.7043            0            0   -2145.3213   -1.3955623   -1369.2919    9.0932554    7.8749848    7.4245982     531.6699 
   91500     516.2862   -175.67423   -127.96674   -175.67423    29.608713    1940.1559            0            0   -2145.4388   -1.3409574    554.54773    9.2150453    7.9804579    7.5240391    553.31995 
   92000    435.13145   -176.81194   -136.60357   -176.81194    18.793144    1950.5385            0            0   -2146.1436    -1.471477    -2059.792    8.9341101    7.7371611    7.2946569     504.2406 
   92500    493.14719   -172.49929   -126.92997   -172.49929    22.219796    1950.6514            0            0   -2145.3705   -1.4830696    1053.6334    8.9107712     7.716949    7.2756008    500.29917 
   93000     362.9134   -158.81292   -125.27787   -158.81292    12.384016    1973.5891            0            0    -2144.786   -1.3365498   -4049.5477    9.2251638    7.9892208    7.5323008    555.14466 
   93500     583.6533   -152.22136   -98.288816   -152.22136    21.479208     1970.265            0            0   -2143.9656    -1.410142    2987.0966    9.0618079    7.8477505    7.3989215    526.17288 
   94000    464.05321   -170.53219   -127.65131   -170.53219    16.504546    1958.8571            0            0   -2145.8939   -1.5619027    88.473758    8.7582595    7.5848701    7.1510757    475.04783 
   94500    448.92311   -175.78442   -134.30163   -175.78442     35.56315    1934.4626            0            0   -2145.8101   -1.5509107    5648.5828     8.778902     7.602747    7.1679302    478.41469 
   95000    476.68818   -184.34033   -140.29191   -184.34033    19.914794    1940.5597            0            0   -2144.8148   -1.5180817   -1926.7063    8.8417334    7.6571606    7.2192318    488.76056 
   95500    414.81424   -168.88033   -130.54938   -168.88033    20.972105    1955.9161            0            0   -2145.7685   -1.5042574    1210.5684    8.8687364    7.6805458    7.2412796    493.25233 
   96000    540.21552   -179.65269   -129.73401   -179.65269     22.71742    1943.2867            0            0   -2145.6568   -1.4460311   -245.55477    8.9862105    7.7822813    7.3371966    513.11377 
   96500    475.58738   -188.71732   -144.77061   -188.71732    37.597177    1919.7187            0            0   -2146.0332   -1.4575572    3808.5821    8.9624607    7.7617134     7.317805    509.05616 
   97000    425.47891    -165.7258   -126.40937    -165.7258    19.818713    1960.2685            0            0    -2145.813   -1.3118671   -2391.9296    9.2826616    8.0390154    7.5792475    565.58967 
   97500    400.86741   -156.62467   -119.58248   -156.62467    13.760666    1975.5102            0            0   -2145.8956   -1.2307414   -3530.3384    9.4822965    8.2119041    7.7422484    602.87115 
   98000     425.8031   -164.98922   -125.64283   -164.98922    21.597271     1959.483            0            0   -2146.0695   -1.4280956     171.9903    9.0236735    7.8147252     7.367785    519.55799 
   98500    576.11785   -180.85094    -127.6147   -180.85094     25.00626    1940.2528            0            0     -2146.11   -1.4674694    151.21757    8.9422357    7.7441981    7.3012914    505.61768 
   99000    473.34111   -169.98075   -126.24161   -169.98075    19.227267    1956.8271            0            0   -2146.0352   -1.4274755   -1456.3493    9.0249798    7.8158565    7.3688516    519.78366 
   99500    487.52326   -161.26487   -116.21523   -161.26487    19.521529    1963.7336            0            0     -2144.52   -1.4466263    261.41202    8.9849779    7.7812139    7.3361902    512.90266 
  100000     465.4377   -175.83764   -132.82881   -175.83764     16.37303    1953.4884            0            0    -2145.699   -1.5183575   -2273.6346    8.8411979    7.6566969    7.2187946    488.67177 
  100500    557.31843   -163.94925   -112.45017   -163.94925    29.242165    1952.0224            0            0   -2145.2138   -1.5512659    7178.9001    8.7782318    7.6021667    7.1673831    478.30514 
  101000    589.49504   -194.48688   -140.01452   -194.48688    23.551736    1928.1354            0            0    -2146.174   -1.5754489   -1921.3996    8.7330851    7.5630684     7.130521    470.96321 
  101500    495.31454   -195.73669    -149.9671   -195.73669     25.76787    1925.0573            0            0   -2146.5619   -1.6520598    888.68004    8.5959499    7.4443059    7.0185507    449.12324 
  102000    592.61718   -175.80823   -121.04738   -175.80823     19.83714    1949.8147            0            0     -2145.46    -1.372084   -3564.1549    9.1448286    7.9196485    7.4667075    540.76754 
  102500    506.44694    -190.3905   -143.59221    -190.3905    34.662952     1921.174            0            0   -2146.2275   -1.5640213    3939.8734     8.754303    7.5814436    7.1478452    474.40431 
  103000    399.47798   -181.12989   -144.21608   -181.12989    24.204357    1940.9589            0            0   -2146.2931   -1.3815329   -1060.2427    9.1239322    7.9015518    7.4496457    537.06897 
  103500    455.22447   -164.30218   -122.23711   -164.30218    21.553039    1959.7448            0            0   -2145.6001   -1.4527799    46.955315     8.972274     7.770212    7.3258175    510.73014 
  104000    589.05051   -175.34648    -120.9152   -175.34648    26.451404    1943.8448            0            0   -2145.6427   -1.5082583    1806.8935    8.8608876    7.6737486    7.2348711    491.94391 
  104500    429.95863   -169.35201   -129.62163   -169.35201    30.655212    1944.1209            0            0   -2144.1281   -1.3564688    2733.5518    9.1797854     7.949922    7.4952496    546.99266 
  105000    312.65914   -173.32944   -144.43813   -173.32944    20.172423    1952.2318            0            0   -2145.7336   -1.3410573   -2910.5069    9.2148163    7.9802597    7.5238522    553.27871 
  105500     399.0284   -192.51951   -155.64725   -192.51951    25.005441    1928.7709            0            0   -2146.2958   -1.4799481   -2328.7312    8.9170315    7.7223706    7.2807123    501.35437 
  106000    376.39411   -179.93157   -145.15083   -179.93157    25.715711    1940.3163            0            0   -2145.9636   -1.5330374    243.69327    8.8128873    7.6321792    7.1956791    483.99242 
  106500    521.92392   -170.32807   -122.09964   -170.32807     16.62315    1958.9762            0            0   -2145.9274   -1.4929742   -2451.6719    8.8910222    7.6998459    7.2594758    496.98009 
  107000    524.45443    -179.7349   -131.27263    -179.7349    15.958839    1950.1769            0            0   -2145.8706   -1.4296175    -3922.188    9.0204702    7.8119511    7.3651695    519.00487 
  107500     445.3177    -172.5484   -131.39876    -172.5484    7.1029621    1965.8427            0            0   -2145.4941    -1.518474   -5753.6016     8.840972    7.6565012    7.2186101     488.6343 
  108000    539.32962   -177.06958   -127.23277   -177.06958    19.879323    1948.3789            0            0   -2145.3278   -1.4485751   -1284.8005    8.9809469    7.7777229    7.3328989    512.21265 
  108500    540.22986   -176.15964   -126.23964   -176.15964    23.623529    1946.3026            0            0   -2146.0858   -1.5625742    1797.3157    8.7570046    7.5837833    7.1500511    474.84366 
  109000    409.87028   -169.29117   -131.41706   -169.29117    32.657547    1943.7402            0            0    -2145.689   -1.5303511    4964.6975    8.8180408    7.6366422    7.1998869    484.84199 
  109500    632.41783   -170.13819   -111.69955   -170.13819    16.191978    1958.2334            0            0   -2144.5636   -1.4744528   -2205.0363    8.9280957    7.7319525    7.2897462    503.22293 
  110000    327.36155   -194.62948   -164.37959   -194.62948    33.228569    1917.9435            0            0   -2145.8015   -1.3978606    136.00692     9.088269    7.8706665    7.4205269    530.79574 
  110500    437.14733   -191.95723   -151.56258   -191.95723     33.42868    1920.6295            0            0   -2146.0154   -1.5867147    2382.7615    8.7123675    7.5451265    7.1136051    467.61934 
  111000     568.1195   -169.61579   -117.11864   -169.61579    8.5157396    1967.3056            0            0   -2145.4371   -1.5294032   -4120.5628    8.8198621    7.6382195     7.201374    485.14247 
  111500    544.41521   -170.92634    -120.6196   -170.92634    35.279445    1939.3026            0            0   -2145.5084   -1.4199012    4901.2411     9.040999    7.8297296    7.3819312     522.5564 
  112000    469.34037    -157.7369   -114.36745    -157.7369    15.777796    1972.6701            0            0   -2146.1848   -1.4481578    441.71422    8.9818094    7.7784699    7.3336032    512.36024 
  112500    497.04792   -170.65813   -124.72837   -170.65813    23.456752    1952.3301            0            0    -2146.445   -1.6193099    3467.1296    8.6535134    7.4941574    7.0655511    458.20658 
  113000    404.09487   -178.94939   -141.60896   -178.94939    25.325927    1941.1543            0            0   -2145.4297   -1.5108222   -62.519463    8.8558722    7.6694051     7.230776    491.10904 
  113500    453.18151   -182.26556   -140.38927   -182.26556     29.45809     1934.164            0            0   -2145.8877   -1.4705527    1932.1542    8.9359816    7.7387819     7.296185    504.55755 
  114000    337.76406   -180.57981   -149.36868   -180.57981    31.013287    1933.6528            0            0   -2145.2459   -1.4113448    1801.5657    9.0592329    7.8455205     7.396819    525.72446 
  114500    445.83528    -171.3635   -130.16604    -171.3635    20.463561    1954.1844            0            0   -2146.0115   -1.2407652   -2258.8759    9.4566924    8.1897304    7.7213428    598.00071 
  115000    473.23873   -168.63035   -124.90067   -168.63035    33.650646    1942.6587            0            0   -2144.9397   -1.3406575    3050.2834    9.2157322    7.9810528    7.5245999    553.44369 
  115500    424.17193   -168.57037   -129.37472   -168.57037    14.379636    1962.3701            0            0   -2145.3201   -1.3464106   -4056.8022    9.2025876    7.9696693    7.5138675    551.07891 
  116000    532.68231   -185.22772   -136.00515   -185.22772    42.515382    1918.3656            0            0   -2146.1087   -1.4894034     7087.219    8.8981219    7.7059944    7.2652727    498.17159 
  116500    504.88398   -172.09909   -125.44523   -172.09909     24.10506    1948.8817            0            0   -2145.0859   -1.3324403   -1190.7046    9.2346381    7.9974258    7.5400366    556.85683 
  117000    518.80312   -172.52795   -124.58789   -172.52795    26.908638     1946.452            0            0   -2145.8886   -1.5690488    2685.9349     8.744943    7.5733377    7.1402029    472.88426 
  117500    429.89815    -180.5956   -140.87081    -180.5956     27.88263    1936.6779            0            0   -2145.1561   -1.4041882   -603.30597    9.0745972    7.8588264    7.4093639    528.40386 
  118000    452.85988   -164.24045   -122.39389   -164.24045    10.090094    1970.3295            0            0     -2144.66   -1.3944727   -4567.4202    9.0956232    7.8770354    7.4265315    532.08533 
  118500    444.81693   -178.54027   -137.43691   -178.54027    25.614732    1941.8402            0            0   -2145.9953   -1.4428795   -375.16509    8.9927484    7.7879433    7.3425348    514.23453 
  119000    335.44234    -195.1988   -164.20222    -195.1988    33.676197     1917.571            0            0    -2146.446    -1.603777    1117.9724    8.6813607    7.5182738    7.0882882     462.6444 
  119500    497.61615   -170.47447   -124.49219   -170.47447    31.017456     1944.545            0            0    -2146.037   -1.4325618    3980.2584    9.0142862    7.8065956    7.3601203    517.93819 
  120000    563.63837   -175.26215   -123.17909   -175.26215    27.389171    1943.9587            0            0     -2146.61   -1.5711831    3877.7562    8.7409815    7.5699069    7.1369683    472.24189 
  120500     358.3148   -178.01342    -144.9033   -178.01342    18.040111    1949.9354            0            0    -2145.989   -1.4284833   -3411.2355     9.022857    7.8140181    7.3671183    519.41696 
  121000    392.90621    -172.7773   -136.47076    -172.7773      22.2072    1950.4812            0            0   -2145.4657   -1.3376786   -1939.6347    9.2225681    7.9869729    7.5301814    554.67618 
  121500    434.96247   -181.88137   -141.68862   -181.88137    17.963046    1946.8288            0            0   -2146.6733   -1.5859258   -3296.9834    8.7138117    7.5463773    7.1147844    467.85193 
  122000    465.61603   -151.93716   -108.91186   -151.93716    21.164473    1972.1634            0            0    -2145.265   -1.2510126    704.97482    9.4308006    8.1673074    7.7002023    593.10229 
  122500      464.172    -183.6344   -140.74254    -183.6344    26.364272    1936.3751            0            0   -2146.3737   -1.5688651    400.00499    8.7452842    7.5736332    7.1404815    472.93961 
  123000    349.33155   -175.45851   -143.17848   -175.45851     10.21708    1960.1401            0            0   -2145.8157    -1.466546   -6022.1279    8.9441121    7.7458231    7.3028235    505.93603 
  123500    410.53147     -170.358   -132.42279     -170.358    11.213382    1963.7638            0            0   -2145.3352   -1.5398099   -3863.9933    8.7999477    7.6209731     7.185114    481.86367 
  124000     507.5136   -181.44825    -134.5514   -181.44825    36.150139    1928.1266            0            0   -2145.7249   -1.4845785     4685.744    8.9077511    7.7143336    7.2731349    499.79066 
  124500    505.07248   -162.44535   -115.77407   -162.44535    11.797618    1971.0395            0            0   -2145.2825   -1.3859316   -3630.7251    9.1142695    7.8931836    7.4417561    535.36442 
  125000     404.4837   -175.91495   -138.53859   -175.91495     16.82872    1952.1639            0            0   -2144.9076   -1.4663289   -3033.6669    8.9445535    7.7462054    7.3031839    506.01095 
  125500    417.19591   -181.82948   -143.27845   -181.82948    39.606993    1923.4184            0            0   -2144.8548   -1.4322048    4586.6025     9.015035    7.8072441    7.3607317    518.06728 
  126000    396.59436   -170.99496   -134.34762   -170.99496    27.815287    1947.2457            0            0   -2146.0559   -1.5801694    4270.0374    8.7243801    7.5555297    7.1234134    469.55627 
  126500    397.79597   -178.78955   -142.03117   -178.78955    22.170291    1945.0592            0            0    -2146.019   -1.4008194   -2396.0724    9.0818658    7.8651212    7.4152987     529.6746 
  127000    401.62757   -161.99071   -124.87827   -161.99071    25.485978    1958.0127            0            0   -2145.4894   -1.3572288     2188.062    9.1780716    7.9484378    7.4938503    546.68636 
  127500    494.20853   -173.49289   -127.82549   -173.49289    21.763731    1950.0377            0            0   -2145.2943   -1.5285511     794.5573    8.8215007    7.6396386    7.2027119    485.41292 
  128000    414.33278   -165.43446   -127.14799   -165.43446     35.78609    1943.7791            0            0   -2144.9996   -1.4452773    6069.6867    8.9877724     7.783634    7.3384719    513.38138 
  128500    535.79485    -193.7753   -144.26511    -193.7753    24.376195    1927.7472            0            0   -2145.8987   -1.3934659   -3279.4108    9.0978132     7.878932    7.4283197    532.46976 
  129000    394.03094   -177.56767    -141.1572   -177.56767    29.786869    1939.0085            0            0    -2146.363   -1.3416784    549.87072    9.2133942    7.9790281     7.522691    553.02258 
  129500     400.9129   -182.17627   -145.12987   -182.17627    19.631147    1944.4164            0            0   -2146.2239    -1.550517   -1292.5392    8.7796449    7.6033904    7.1685368    478.53616 
  130000    457.85376   -177.89928   -135.59125   -177.89928    39.284185    1929.1639            0            0   -2146.3474   -1.3766022    5142.8258    9.1348125    7.9109744    7.4585295    538.99263 
  130500    577.44815   -168.06412   -114.70496   -168.06412    16.611749    1960.6727            0            0   -2145.3485    -1.390902   -2545.3413    9.1033998    7.8837702    7.4328811    533.45128 
  131000    409.15769   -175.55812   -137.74986   -175.55812    30.274729    1939.6442            0            0    -2145.477   -1.4233879    1606.4447    9.0336108    7.8233312    7.3758987    521.27637 
  131500    428.88903   -178.48001   -138.84847   -178.48001    24.981182    1942.6199            0            0   -2146.0811   -1.3238795   -1939.3858    9.2545005    8.0146271    7.5562541    560.45772 
  132000    460.60326   -170.35053   -127.78844   -170.35053    22.089255    1951.9161            0            0   -2144.3559   -1.4640753   -825.17165    8.9491406    7.7501778    7.3069292    506.78984 
  132500    512.73057   -171.58048   -124.20156   -171.58048     21.68713     1951.987            0            0   -2145.2546   -1.3773444   -2249.3793    9.1331715    7.9095532    7.4571895    538.70219 
  133000    444.42753   -177.98346   -136.91609   -177.98346    18.554351    1949.4767            0            0   -2146.0145   -1.4809478   -3922.1214    8.9150246    7.7206326    7.2790737    501.01595 
  133500    516.64522    -187.6471   -139.90645    -187.6471    23.133368    1935.6342            0            0   -2146.4147   -1.5642672   -375.46549    8.7538443    7.5810464    7.1474707    474.32974 
  134000    466.47637   -174.34187   -131.23707   -174.34187    19.619003    1951.6748            0            0   -2145.6357   -1.3234392   -3482.6198    9.2555267    8.0155159     7.557092    560.64419 
  134500    464.10265   -181.70762   -138.82216   -181.70762     39.17437    1924.4682            0            0   -2145.3502   -1.3905041    4507.9721    9.1042682    7.8845222    7.4335901    533.60394 
  135000    407.17673   -172.67256   -135.04735   -172.67256    22.071712    1951.2004            0            0   -2145.9446   -1.3474999   -2321.4153    9.2001072    7.9675212    7.5118422    550.63343 
  135500     590.8922   -173.80101   -119.19955   -173.80101    21.189237    1950.9156            0            0   -2145.9059   -1.4623139   -1172.4682    8.9527322    7.7532883    7.3098617    507.40026 
  136000    362.21108   -183.82192   -150.35177   -183.82192    21.210503    1939.6517            0            0   -2144.6842   -1.4028346   -3452.9602     9.077515    7.8613533    7.4117463    528.91373 
  136500    391.62024   -185.89081    -149.7031   -185.89081    27.937941    1932.5753            0            0   -2146.4041   -1.5818729    884.25606    8.7212473    7.5528166    7.1208554    469.05061 
  137000    560.12736   -163.20784   -111.44921   -163.20784    2.6085201    1979.7588            0            0   -2145.5752   -1.3871544   -6953.9376    9.1115905    7.8908635    7.4395688    534.89247 
  137500    436.03686   -176.06852   -135.77648   -176.06852    4.1975326     1964.618            0            0    -2144.884   -1.5407349    -8312.937    8.7981864    7.6194478    7.1836758    481.57439 
  138000    397.02381   -189.70713    -153.0201   -189.70713    33.603056     1923.235            0            0   -2146.5452   -1.5092684    1689.8444    8.8589103    7.6720362    7.2332566    491.61466 
  138500    423.86886   -164.24197   -125.07432   -164.24197    11.438994    1969.5862            0            0   -2145.2672   -1.2559964   -4422.5493    9.4183103    8.1564905     7.690004    590.74886 
  139000    453.03151   -175.77824   -133.91581   -175.77824    12.681337    1957.0956            0            0   -2145.5552   -1.4497625   -5662.2692    8.9784942    7.7755988    7.3308963     511.7931 
  139500    443.34686   -160.26064   -119.29312   -160.26064    22.191152    1963.3297            0            0   -2145.7815   -1.5504608    2481.2468    8.7797511    7.6034824    7.1686235    478.55353 
  140000    494.48878    -167.7418   -122.04851    -167.7418    31.896399     1946.384            0            0   -2146.0222   -1.3547472    2890.2402    9.1836723    7.9532881    7.4984232    547.68777 
  140500    444.84176   -179.58541   -138.47976   -179.58541    24.880914    1941.3186            0            0    -2145.785   -1.4403483    468.84543    8.9980132    7.7925028    7.3468335    515.13824 
  141000    412.64105   -176.31456   -138.18441   -176.31456    26.420207    1943.1923            0            0   -2145.9271   -1.5373569    3745.9597    8.8046257    7.6250244    7.1889335    482.63254 
  141500    355.99772    -171.7616   -138.86559    -171.7616    11.089688    1963.2409            0            0   -2146.0922    -1.470286   -5727.8663    8.9365219    7.7392498    7.2966261    504.64907 
  142000    449.60233   -172.33629   -130.79074   -172.33629    21.500002    1951.6171            0            0   -2145.4534   -1.3336548   -1914.5547    9.2318339    7.9949973    7.5377469    556.34969 
  142500    384.30342   -184.59171   -149.08011   -184.59171    25.286032    1936.0126            0            0   -2145.8903   -1.4737842   -1889.9179    8.9294456    7.7331215    7.2908483    503.45121 
  143000    328.09579   -181.30468   -150.98695   -181.30468    26.236301    1938.6911            0            0   -2146.2321   -1.5023551   -172.26776     8.872478    7.6837862    7.2443346    493.87689 
  143500    526.13728   -162.67334   -114.05556   -162.67334    17.526933    1964.7934            0            0   -2144.9937   -1.2653852   -1905.2846    9.3949587    8.1362674    7.6709375    586.36567 
  144000    362.64677   -170.72447   -137.21406   -170.72447    17.510027    1957.8722            0            0   -2146.1067   -1.4836238   -2130.5602    8.9096613    7.7159879    7.2746946    500.11226 
  144500     437.2235   -179.24257   -138.84088   -179.24257    20.954024    1945.9935            0            0   -2146.1901   -1.3548958   -3688.9841    9.1833366    7.9529974    7.4981491    547.62771 
  145000    498.44575    -171.8153   -125.75637    -171.8153    31.035363    1942.9013            0            0    -2145.752   -1.4106764     3038.164    9.0606634    7.8467594     7.397987    525.97354 
  145500    424.15456   -192.01766   -152.82362   -192.01766    45.038227    1908.8702            0            0   -2145.9261   -1.4201063    5146.2278    9.0405637    7.8293525    7.3815757    522.48092 
  146000    384.25461   -161.17641   -125.66932   -161.17641    23.642885    1959.8818            0            0   -2144.7011   -1.4151783    1638.4039    9.0510455    7.8384301    7.3901341    524.30036 
  146500    524.98477   -176.63982   -128.12854   -176.63982     22.19289     1946.726            0            0   -2145.5587   -1.3890674   -826.90324    9.1074058    7.8872395     7.436152    534.15583 
  147000     413.6939   -171.96055   -133.73312   -171.96055    17.104608     1956.751            0            0   -2145.8162   -1.6589925   -934.26292    8.5839594    7.4339219    7.0087606    447.24642 
  147500    410.67149   -180.34256   -142.39442   -180.34256    10.570599    1953.9809            0            0   -2144.8941   -1.4994923   -7998.9597    8.8781209    7.6886731     7.248942    494.81981 
  148000    472.51663   -149.59498   -105.93203   -149.59498    15.817418    1980.1307            0            0   -2145.5431   -1.3757228   -72.726279    9.1367586    7.9126597    7.4601184    539.33717 
  148500    491.16485   -173.23227   -127.84613   -173.23227     20.18573    1952.9649            0            0   -2146.3829   -1.5417515   -737.48664    8.7962522    7.6177727    7.1820966    481.25685 
  149000    443.75061   -175.47585   -134.47102   -175.47585    29.226077    1939.9668            0            0   -2144.6687    -1.378889    110.77934      9.12976    7.9065988    7.4544041    538.09876 
  149500     454.5271   -185.61374   -143.61311   -185.61374    25.437436    1935.3523            0            0   -2146.4035   -1.5761449   -647.13901    8.7317994     7.561955    7.1294712    470.75523 
  150000    479.95446   -178.35355   -134.00331   -178.35355    11.835307    1956.4604            0            0   -2146.6492   -1.4523915   -5911.4689    8.9730736    7.7709045    7.3264704    510.86671 
  150500    516.94836   -181.49845   -133.72978   -181.49845    27.752815     1936.444            0            0   -2145.6953   -1.3579312    429.76538    9.1764889    7.9470672     7.492558    546.40359 
  151000     478.4395   -186.31485    -142.1046   -186.31485    26.369509    1933.4148            0            0   -2146.0992   -1.5203468    672.20094    8.8373403    7.6533561    7.2156448    488.03239 
  151500    483.89337   -179.58303   -134.86881   -179.58303    33.909901    1932.2465            0            0   -2145.7394   -1.5054805    4031.1695     8.866334    7.6784653    7.2393181    492.85161 
  152000    482.36295   -184.22674   -139.65394   -184.22674    16.571548    1945.0862            0            0   -2145.8845   -1.2966389   -6003.7304    9.3188598    8.0703639    7.6088032    572.23214 
  152500    367.12533   -178.84248   -144.91822   -178.84248    32.973416    1934.1683            0            0   -2145.9842   -1.5011205    3828.4775    8.8749098    7.6858922    7.2463201    494.28309 
  153000    466.94492   -159.97277   -116.82467   -159.97277    10.659292    1973.2685            0            0   -2143.9006   -1.3087813   -3840.9184    9.2899512    8.0453283    7.5851994    566.92317 
  153500    460.65253    -177.4748   -134.90815    -177.4748     15.81613    1952.3919            0            0   -2145.6828   -1.4631785   -4107.8041    8.9509686    7.7517609    7.3084218    507.10046 
  154000    481.68189   -182.43059   -137.92072   -182.43059    15.981624    1947.6974            0            0   -2146.1096    -1.543883   -3340.7756    8.7922022    7.6142653    7.1787898    480.59241 
  154500    396.23559     -165.331   -128.71681     -165.331    21.082638    1959.0595            0            0   -2145.4731   -1.4682451    216.53441    8.9406607     7.742834    7.3000054    505.35055 
  155000    469.74277   -167.45924   -124.05261   -167.45924    32.909876    1945.1465            0            0   -2145.5156    -1.397512    4455.7689    9.0890246    7.8713209    7.4211438    530.92814 
  155500    440.53004   -185.61155   -144.90432   -185.61155    30.076039    1928.7807            0            0   -2144.4683   -1.7602851    5646.0326    8.4160465    7.2885052    6.8716605     421.5104 
  156000    366.38142   -176.91886   -143.06334   -176.91886    22.163269    1947.0798            0            0   -2146.1619   -1.4330758   -2134.2865    9.0132083    7.8056621    7.3592402    517.75242 
  156500    415.22414   -187.80144   -149.43261   -187.80144    28.545909    1928.7648            0            0   -2145.1122   -1.5745307    663.56398    8.7347823    7.5645383    7.1319067    471.23785 
  157000    412.29845   -169.87875   -131.78027   -169.87875    22.002287    1952.4461            0            0   -2144.3272   -1.5406277    2419.9729    8.7983904    7.6196245    7.1838425     481.6079 
  157500    424.33525   -168.56401   -129.35327   -168.56401    29.204215    1947.8872            0            0   -2145.6555   -1.2877941    1872.5419    9.3401458    8.0887981    7.6261831    576.16235 
  158000     394.6514   -169.08808   -132.62027   -169.08808    22.358541    1954.4649            0            0   -2145.9115   -1.3355888   -1458.8605    9.2273757    7.9911364    7.5341068    555.54407 
  158500    540.33843   -162.03292   -112.10289   -162.03292    13.443054     1969.872            0            0    -2145.348   -1.5508556     1231.905    8.7790059     7.602837    7.1680151    478.43169 
  159000     505.8696    -177.5191   -130.77416    -177.5191     27.51047    1941.2434            0            0    -2146.273    -1.539355    3110.1352    8.8008146    7.6217239    7.1858217    482.00608 
  159500    475.81019   -171.43892   -127.47162   -171.43892    36.395798    1937.5834            0            0   -2145.4181   -1.2647781    3882.9734    9.3964617     8.137569    7.6721647    586.64713 
  160000    409.62596   -171.40952   -133.55799   -171.40952     11.89237    1962.3252            0            0   -2145.6271   -1.4142421   -5598.8987    9.0530423    7.8401593    7.3917644    524.64744 
  160500    511.09031   -178.43098   -131.20362   -178.43098    28.344169    1938.1908            0            0   -2144.9659   -1.3392015   -919.45778    9.2190709    7.9839443     7.527326    554.04543 
  161000    515.62191   -166.72453   -119.07843   -166.72453    24.467557    1955.2982            0            0   -2146.4903   -1.5165795     2994.432    8.8446517    7.6596879    7.2216145    489.24468 
  161500    364.27413   -170.18666   -136.52587   -170.18666      17.2471    1957.6005            0            0   -2145.0342   -1.4032558   -3469.5665    9.0766067    7.8605667    7.4110047    528.75497 
  162000    437.58763   -176.58073   -136.14539   -176.58073     27.49728     1942.065            0            0    -2146.143   -1.4139477    806.56114    9.0536706    7.8407034    7.3922774    524.75667 
  162500    441.38079   -170.35229   -129.56645   -170.35229    19.604886    1955.2572            0            0   -2145.2143   -1.4143929   -1774.4309    9.0527204    7.8398806    7.3915016    524.59147 
  163000     475.4349   -190.30248   -146.36987   -190.30248    26.750119    1929.4265            0            0   -2146.4791   -1.5486353   -828.46662    8.7831995    7.6064688    7.1714391    479.11763 
  163500    695.84918   -188.05079   -123.75077   -188.05079    29.252119    1928.7282            0            0   -2146.0311   -1.6741765    2660.2759    8.5579297    7.4113796    6.9875075    443.19011 
  164000    486.62246   -174.08214   -129.11574   -174.08214    23.424894     1948.083            0            0     -2145.59   -1.5559473    1156.5167    8.7694194    7.5945348    7.1601877    476.86607 
  164500    496.59843    -172.1421   -126.25387    -172.1421    4.3811642    1969.0779            0            0   -2145.6012   -1.3778312   -8268.3131    9.1320957    7.9086216    7.4563112    538.51186 
  165000    481.04081    -173.7405   -129.28987    -173.7405    29.767288    1939.7903            0            0   -2143.2981   -1.3645096    1714.0547    9.1617182    7.9342754    7.4804978    543.76932 
  165500     541.2908   -177.33162   -127.31358   -177.33162    41.469366    1926.6649            0            0   -2145.4659   -1.5198185     7982.613     8.838364    7.6542426    7.2164807    488.20201 
  166000    384.99546   -167.95364   -132.37809   -167.95364    11.610083    1965.5278            0            0   -2145.0916   -1.5410669   -3745.4131    8.7975546    7.6189006      7.18316    481.47065 
  166500    377.62627   -174.09216   -139.19756   -174.09216     16.81213    1954.6206            0            0   -2145.5249   -1.4554204   -3886.7623    8.9668447    7.7655101    7.3213845    509.80355 
  167000    489.93881   -171.72309   -126.45024   -171.72309    18.971956    1955.9181            0            0   -2146.6131   -1.5275378   -457.68448    8.8234509    7.6413275    7.2043042    485.73493 
  167500    459.55745   -175.67547   -133.21002   -175.67547    35.701345    1934.1922            0            0   -2145.5691   -1.5208671    6060.3219    8.8363324    7.6524832    7.2148219    487.86543 
  168000    422.93525   -151.67983   -112.59845   -151.67983    11.279535    1982.2843            0            0   -2145.2437   -1.1830873   -3137.0791    9.6079382     8.320713    7.8448342    627.15446 
  168500    432.91738   -183.22804   -143.22426   -183.22804    36.171293    1927.2296            0            0    -2146.629   -1.6245631    6083.4341    8.6441761     7.486071    7.0579272    456.72493 
  169000    540.98319   -166.39985   -116.41023   -166.39985    31.889899    1947.0168            0            0   -2145.3066   -1.4557224    4916.7088    8.9662246     7.764973    7.3208782    509.69779 
  169500    482.96078   -173.96152   -129.33347   -173.96152    39.715742    1932.0821            0            0   -2145.7593   -1.5657002    9763.1395    8.7511728    7.5787328    7.1452895    473.89561 
  170000    430.76662   -166.16171   -126.35667   -166.16171     16.60653    1962.5809            0            0   -2145.3491   -1.3135262    -3234.905    9.2787517    8.0356293    7.5760551    564.87528 
  170500    492.14439   -182.40422   -136.92756   -182.40422    35.449148    1928.4144            0            0   -2146.2678   -1.5755569    4714.0648    8.7328855    7.5628956     7.130358    470.93092 
  171000    492.23016   -165.80927   -120.32469   -165.80927    21.486728     1957.734            0            0     -2145.03   -1.4166071    1505.5511    9.0480014    7.8357938    7.3876486    523.77154 
  171500    366.33532   -165.20335    -131.3521   -165.20335    8.3705621     1970.789            0            0   -2144.3629   -1.4032471   -5770.4795    9.0766255     7.860583      7.41102    528.75826 
  172000    459.77056   -157.34814   -114.86299   -157.34814    8.3690644    1978.4849            0            0   -2144.2021    -1.364753   -4162.5636    9.1611735    7.9338037    7.4800531    543.67234 
  172500    539.67966   -183.16879   -133.29964   -183.16879    21.202486    1941.1888            0            0   -2145.5601   -1.5232774   -1227.7741    8.8316694    7.6484449    7.2110145    487.09348 
  173000    387.00229   -187.49259    -151.7316   -187.49259    31.852312    1926.8412            0            0   -2146.1861   -1.4191852   -110.62494    9.0425192    7.8310461    7.3831724    522.82004 
  173500    372.24386   -182.92198   -148.52474   -182.92198    17.096055    1945.9305            0            0   -2145.9486    -1.479995   -4385.0266    8.9169373    7.7222891    7.2806354    501.33849 
  174000     399.3714   -177.63305   -140.72909   -177.63305    26.520392    1941.2567            0            0   -2145.4101   -1.4731293    656.51973    8.9307687    7.7342673    7.2919286    503.67504 
  174500    490.66117   -179.01878   -133.67918   -179.01878    19.909164     1947.084            0            0    -2146.012   -1.4121392   -2069.1487    9.0575338    7.8440491    7.3954317    525.42871 
  175000    482.38387   -168.86788   -124.29315   -168.86788    16.619187    1959.6093            0            0   -2145.0963   -1.5029511    -2103.098     8.871305    7.6827704    7.2433769    493.68104 
  175500    411.11661   -177.90036   -139.91108   -177.90036    21.972389     1945.907            0            0   -2145.7798   -1.5037697   -949.13965     8.869695     7.681376    7.2420623     493.4123 
  176000    369.83778   -184.19706   -150.02216   -184.19706    36.236977    1924.8514            0            0   -2145.2854   -1.5061827    5059.5126     8.864956    7.6772719    7.2381929    492.62184 
  176500    396.63162   -171.91942   -135.26863   -171.91942    16.479572    1956.1756            0            0   -2144.5746   -1.4736604   -3686.6827    8.9296957    7.7333382    7.2910526    503.49353 
  177000    494.96775   -183.15309   -137.41554   -183.15309    31.187047    1931.7463            0            0   -2146.0864   -1.3092031   -163.27149    9.2889536    8.0444644    7.5843849    566.74055 
  177500    466.23968   -179.09924   -136.01631   -179.09924    28.792762    1937.2374            0            0   -2145.1294   -1.3931131     37.86232    9.0985811    7.8795971    7.4289467    532.60461 
  178000    403.18342   -184.36695   -147.11074   -184.36695     32.68313    1928.5201            0            0   -2145.5702   -1.3964777    1809.3904    9.0912681    7.8732638    7.4229756    531.32139 
  178500    462.94731   -171.45553   -128.67684   -171.45553    11.976917    1962.6334            0            0   -2146.0659    -1.486441   -4518.8244    8.9040291    7.7111102    7.2700959    499.16442 
  179000    385.08517   -164.41409   -128.83025   -164.41409    13.893971    1966.5806            0            0   -2144.8886   -1.3364945    -4217.671    9.2252909    7.9893309    7.5324046     555.1676 
  179500    394.41613   -174.18477    -137.7387   -174.18477    15.926146    1955.6369            0            0   -2145.7479   -1.3572199   -3176.9805    9.1780916    7.9484552    7.4938666    546.68994 
  180000    598.59458   -187.04357   -131.73037   -187.04357    36.613372     1922.602            0            0    -2146.259   -1.6607261    7967.0542    8.5809716    7.4313344     7.006321    446.77956 
  180500    618.33652   -164.22236    -107.0849   -164.22236    18.510109      1961.97            0            0   -2144.7025   -1.3772159   -1565.6641    9.1334555    7.9097992    7.4574214    538.75245 
  181000    412.38908   -178.51618   -140.40932   -178.51618    34.917059    1932.4796            0            0   -2145.9128   -1.5699147    5198.4284    8.7433349     7.571945    7.1388899    472.62343 
  181500    380.37888   -162.88498   -127.73603   -162.88498    13.919034     1968.082            0            0   -2144.8861   -1.4151422   -2265.0939    9.0511224    7.8384967    7.3901969    524.31372 
  182000    553.24878   -173.19875   -122.07573   -173.19875    11.297763    1960.4654            0            0   -2144.9619   -1.5208025   -3912.1248    8.8364575    7.6525915     7.214924    487.88615 
  182500    477.59115   -169.59988   -125.46802   -169.59988     22.72187    1953.3173            0            0   -2145.6391   -1.3545208   -80.199458    9.1841838    7.9537312    7.4988409    547.77929 
  183000    420.25708   -173.97077   -135.13687   -173.97077    28.755314     1942.999            0            0   -2145.7251   -1.3765667    805.89169    9.1348912    7.9110425    7.4585937    539.00656 
  183500    471.65058   -182.67647   -139.09354   -182.67647    31.503861    1932.0985            0            0   -2146.2788   -1.6189965    5706.0747    8.6540717    7.4946409    7.0660069    458.29528 
  184000    444.51744   -174.07212   -132.99644   -174.07212      17.2243    1954.1261            0            0   -2145.4226   -1.5147508   -907.63498    8.8482097    7.6627692    7.2245196    489.83535 
  184500    480.61523   -175.98054   -131.56924   -175.98054    31.015114    1937.1452            0            0   -2144.1409   -1.6104009    6146.8304    8.6694416    7.5079516    7.0785564    460.74145 
  185000    529.91886   -184.06516   -135.09795   -184.06516    21.456544    1940.5952            0            0   -2146.1169   -1.5519226   -1804.9887    8.7769936    7.6010943     7.166372    478.10276 
  185500    434.72319   -175.70688   -135.53624   -175.70688    27.918266    1941.6032            0            0   -2145.2283   -1.4160256      530.953    9.0492399    7.8368663    7.3886598    523.98663 
  186000     590.0392   -176.32627   -121.80363   -176.32627    13.603053     1955.612            0            0   -2145.5413   -1.5012582   -4204.4005    8.8746385    7.6856572    7.2460986    494.23775 
  186500    441.05786   -178.48713   -137.73112   -178.48713    36.035028    1930.9483            0            0   -2145.4705   -1.3919062    2672.2051      9.10121    7.8818738    7.4310932    533.06641 
  187000       477.62   -167.39554   -123.26101   -167.39554    15.799092    1962.2972            0            0   -2145.4918   -1.2674475   -3342.7454    9.3898605    8.1318523    7.6667749    585.41161 
  187500    346.95733   -177.26799   -145.20736   -177.26799    12.302877     1956.203            0            0   -2145.7739   -1.4537211   -6492.0651    8.9703371    7.7685346    7.3242361    510.39946 
  188000    363.77769   -171.88087   -138.26595   -171.88087    34.375448    1940.2232            0            0   -2146.4795   -1.5256884    6391.2879    8.8270147    7.6444138     7.207214    486.32372 
  188500    441.26352   -171.51601     -130.741   -171.51601    25.737821    1948.1758            0            0   -2145.4297   -1.5319006    3251.1423    8.8150667    7.6340666    7.1974586    484.35158 
  189000    332.64201   -167.81179   -137.07397   -167.81179    26.739358    1950.3313            0            0   -2144.8825   -1.3964763    2235.8792    9.0912712    7.8732665    7.4229781    531.32193 
  189500    524.75928   -168.61008   -120.11964   -168.61008    24.125156    1953.6805            0            0   -2146.4157   -1.4624423    3029.8405    8.9524701    7.7530613    7.3096478    507.35571 
  190000    390.43497   -158.40551   -122.32733   -158.40551    18.471233    1965.8911            0            0   -2142.7679   -1.4227856    128.18452    9.0348852    7.8244348    7.3769393    521.49701 
  190500    481.38672   -162.57915   -118.09656   -162.57915    16.590676    1965.4369            0            0   -2144.6067    -1.357963   -2648.6361    9.1764172    7.9470051    7.4924995    546.39078 
  191000     504.8211    -179.6031   -132.95505    -179.6031    49.142253    1916.1434            0            0   -2144.8887   -1.2710069    7893.3243    9.3810868     8.124254    7.6596112    583.77216 
  191500    556.80172   -178.73828   -127.28696   -178.73828    21.043344     1946.507            0            0   -2146.2886   -1.4593733   -1396.0063    8.9587414    7.7584924    7.3147682    508.42267 
  192000    491.15401   -183.73826   -138.35312   -183.73826    34.888019    1927.7619            0            0   -2146.3881   -1.3479941    1553.8679    9.1989826    7.9665472     7.510924    550.43152 
  192500    429.67185   -176.43429   -136.73042   -176.43429    15.178724    1954.3329            0            0   -2145.9459   -1.5466497   -3935.3192    8.7869565    7.6097224    7.1745067    479.73271 
  193000    433.20167   -174.57491   -134.54486   -174.57491    29.830671    1941.4276            0            0   -2145.8332   -1.4382635    2686.1283    9.0023586     7.796266    7.3503815    515.88493 
  193500    356.15249   -182.75393   -149.84362   -182.75393    23.413764    1939.8397            0            0   -2146.0074   -1.5096835   -1869.8557    8.8580983     7.671333    7.2325937    491.47949 
  194000    416.45645   -153.74744   -115.26474   -153.74744    31.795165    1958.8134            0            0    -2144.356   -1.4855502    8187.7225    8.9058084    7.7126512    7.2715487    499.46373 
  194500    450.47431   -173.55157   -131.92544   -173.55157    10.473465    1961.9556            0            0   -2145.9807   -1.3631165   -6843.6277    9.1648384    7.9369775    7.4830454    544.32507 
  195000    394.81813   -161.42086   -124.93764   -161.42086    15.251595    1968.2515            0            0   -2144.9239    -1.289486   -3590.3988     9.336059    8.0852589    7.6228462    575.40639 
  195500    360.37733   -164.91241    -131.6117   -164.91241    29.293311    1951.4387            0            0   -2145.6445   -1.5396261    5616.4153     8.800298    7.6212765       7.1854    481.92122 
  196000     437.8114   -169.41661    -128.9606   -169.41661    23.187165     1952.763            0            0   -2145.3667   -1.4566533   -613.25233    8.9643141    7.7633185    7.3193183    509.37204 
  196500    392.40982   -179.65362   -143.39295   -179.65362    32.476516    1932.6411            0            0   -2144.7712   -1.5247458     4227.094    8.8288332    7.6459887    7.2086988    486.62436 
  197000    422.44568   -169.81512   -130.77898   -169.81512    19.824854     1956.219            0            0    -2145.859   -1.4811614    187.16511    8.9145961    7.7202615    7.2787238     500.9437 
  197500    535.54351   -193.77587   -144.28892   -193.77587    17.590974    1934.9896            0            0   -2146.3564   -1.5727413    -4001.754    8.7380938    7.5674061    7.1346106    471.77402 
  198000    451.83479   -190.02818   -148.27634   -190.02818    12.333856     1943.986            0            0   -2146.3481   -1.4163921   -6594.5003    9.0484592    7.8361902    7.3880223    523.85103 
  198500    401.99335   -184.65342   -147.50718   -184.65342    29.990834    1931.7142            0            0   -2146.3584    -1.617132    3419.9333    8.6573965    7.4975202    7.0687216    458.82369 
  199000    347.05603   -168.64165    -136.5719   -168.64165    15.142715    1961.9456            0            0     -2145.73   -1.4804675   -2995.6494    8.9159886    7.7214674    7.2798608    501.17849 
  199500    445.99886   -185.96752   -144.75494   -185.96752    35.051055     1924.803            0            0   -2145.8216   -1.5437227    3647.8947    8.7925066    7.6145289    7.1790383    480.64232 
  200000    500.21248    -164.4258   -118.20361    -164.4258    14.377209     1967.473            0            0    -2146.276   -1.3367488   -4043.5641    9.2247059    7.9888243    7.5319269    555.06199 
Loop time of 41.5726 on 4 procs for 200000 steps with 48 atoms

Performance: 831.318 ns/day, 0.029 hours/ns, 4810.866 timesteps/s
98.7% CPU use with 4 MPI tasks x no OpenMP threads

MPI task timing breakdown:
Section |  min time  |  avg time  |  max time  |%varavg| %total
---------------------------------------------------------------
Pair    | 11.205     | 13.488     | 16.328     |  52.6 | 32.44
Bond    | 0.025093   | 0.027678   | 0.029596   |   1.0 |  0.07
Kspace  | 11.464     | 14.342     | 16.657     |  51.7 | 34.50
Neigh   | 0.97776    | 0.98118    | 0.98367    |   0.2 |  2.36
Comm    | 5.0376     | 5.4835     | 5.9776     |  18.5 | 13.19
Output  | 0.029521   | 0.030168   | 0.031819   |   0.5 |  0.07
Modify  | 5.6445     | 6.5596     | 7.38       |  31.1 | 15.78
Other   |            | 0.6611     |            |       |  1.59

Nlocal:    12 ave 15 max 10 min
Histogram: 1 0 1 0 1 0 0 0 0 1
Nghost:    1717.5 ave 1759 max 1676 min
Histogram: 1 0 0 1 0 0 1 0 0 1
Neighs:    2745 ave 3442 max 2085 min
Histogram: 1 0 0 1 0 0 1 0 0 1

Total # of neighbors = 10980
Ave neighs/atom = 228.75
Ave special neighs/atom = 2
Neighbor list builds = 12688
Dangerous builds = 1220

unfix		1
unfix		2
unfix		3

fix 		1 all shake 1e-6 200 0 b 1 a 1
  0 = # of size 2 clusters
  0 = # of size 3 clusters
  0 = # of size 4 clusters
  16 = # of frozen angles
  find clusters CPU = 6.8635e-05 secs
fix             2 all nph iso ${pressure} ${pressure} ${pressureDamp}
fix             2 all nph iso 1 ${pressure} ${pressureDamp}
fix             2 all nph iso 1 1 ${pressureDamp}
fix             2 all nph iso 1 1 1000
fix             3 all temp/csvr ${temperature2} ${temperature} ${tempDamp} ${seed}
fix             3 all temp/csvr 450 ${temperature} ${tempDamp} ${seed}
fix             3 all temp/csvr 450 300 ${tempDamp} ${seed}
fix             3 all temp/csvr 450 300 100 ${seed}
fix             3 all temp/csvr 450 300 100 745821

run             100000
PPPM initialization ...
  extracting TIP4P info from pair style
  using 12-bit tables for long-range coulomb (../kspace.cpp:323)
  G vector (1/distance) = 0.340903
  grid = 8 8 6
  stencil order = 5
  estimated absolute RMS force accuracy = 0.0148616
  estimated relative force accuracy = 4.47554e-05
  using double precision KISS FFT
  3d grid and FFT values/proc = 1573 128
Per MPI rank memory allocation (min/avg/max) = 8.147 | 8.149 | 8.15 Mbytes
Step Temp PotEng TotEng E_pair E_vdwl E_coul E_bond E_angle E_long E_tail Press Lx Ly Lz Volume 
  200000    500.21248   -164.42562   -118.20343   -164.42562    14.377209    1952.2827            0            0   -2131.0856   -1.3367488   -3837.6041    9.2247059    7.9888243    7.5319269    555.06199 
  200500    402.94042   -169.50606    -132.2723   -169.50606    29.322632    1930.7869            0            0   -2129.6156   -1.2698705    980.33383    9.3838845    8.1266769    7.6618955     584.2946 
  201000    552.03087   -169.07673   -118.06626   -169.07673    36.280414    1925.0522            0            0   -2130.4093   -1.5050321    7007.8455    8.8672144    7.6792278    7.2400369    492.99843 
  201500    458.38393   -172.49278   -130.13576   -172.49278    26.065499    1931.7587            0            0    -2130.317   -1.4575862    1372.2914    8.9624011    7.7616618    7.3177564    509.04602 
  202000    426.24408   -172.64815   -133.26102   -172.64815    10.753851     1947.565            0            0    -2130.967   -1.3590182   -6415.3147    9.1740415    7.9449477    7.4905597    545.96652 
  202500    385.54955   -163.15231   -127.52556   -163.15231    19.651924    1947.8708            0            0   -2130.6751   -1.4444967    -98.20041    8.9893912    7.7850359    7.3397936    513.65882 
  203000    354.65725   -165.82887   -133.05672   -165.82887    17.301734    1946.3622            0            0   -2129.4928   -1.3478982   -2602.7022    9.1992009    7.9667363    7.5111022    550.47071 
  203500    441.93052   -185.07883   -144.24219   -185.07883    18.790015    1926.8631            0            0    -2130.732   -1.4403963   -3256.5477    8.9979133    7.7924162    7.3467519    515.12107 
  204000    355.91899   -173.58589   -140.69716   -173.58589    19.116167    1937.3859            0            0   -2130.0879     -1.45478   -939.77822    8.9681603    7.7666494    7.3224587    510.02797 
  204500    390.20322   -157.93343   -121.87665   -157.93343    18.037621    1952.4863            0            0   -2128.4574   -1.3910821   -241.02651     9.103007      7.88343    7.4325604    533.38223 
  205000    418.47531   -164.07851   -125.40926   -164.07851    27.563129    1938.2073            0            0    -2129.849   -1.4512439    3651.6737    8.9754382    7.7729523    7.3284011    511.27069 
  205500    473.80504   -173.20898   -129.42697   -173.20898    22.165575    1935.0932            0            0   -2130.4677   -1.4580253    159.57247    8.9615015    7.7608827    7.3170218    508.89273 
  206000    381.55641    -180.1879   -144.93013    -180.1879    24.743539    1926.1601            0            0   -2131.0915   -1.4832792   -647.53942    8.9103513    7.7165854    7.2752579    500.22845 
  206500    497.64359   -169.17082   -123.18601   -169.17082    29.762606    1931.8225            0            0   -2130.7559   -1.4949968    4079.5116    8.8870107    7.6963719    7.2562005    496.30771 
  207000    430.16472   -172.72877   -132.97936   -172.72877    11.391245     1946.945            0            0    -2131.065    -1.422349   -5929.0334    9.0358096    7.8252354     7.377694     521.6571 
  207500    500.37791    -173.4741   -127.23663    -173.4741    30.865961    1925.9402            0            0   -2130.2802   -1.5680731    5956.9168    8.7467564    7.5749081    7.1416835    473.17849 
  208000     448.7047   -178.90057   -137.43796   -178.90057     16.44029     1935.265            0            0   -2130.6058   -1.4619037   -3382.8454    8.9535694    7.7540133    7.3105453    507.54263 
  208500    546.44106    -174.2232   -123.72926    -174.2232    18.148181    1938.3274            0            0   -2130.6988   -1.4145825   -1758.6979     9.052316    7.8395303    7.3911714    524.52117 
  209000    435.96382   -169.23351   -128.94823   -169.23351    3.9989864     1957.582            0            0   -2130.8145   -1.4660402   -7118.4532    8.9451407    7.7467138    7.3036633     506.1106 
  209500    495.99922   -176.49324   -130.66038   -176.49324    34.153723    1920.2699            0            0   -2130.9169    -1.567317    5905.5463    8.7481626     7.576126    7.1428317    473.40676 
  210000    378.22101    -168.4879   -133.53835    -168.4879    21.892607    1939.8707            0            0   -2130.2512   -1.2723806   -1628.5763    9.3777098    8.1213294    7.6568539    583.14194 
  210500    382.01432   -173.53215   -138.23207   -173.53215    28.582566    1928.5227            0            0   -2130.6374   -1.5273158    4110.0961    8.8238784    7.6416977    7.2046533    485.80553 
  211000    469.67385   -172.82736   -129.42709   -172.82736     16.32336    1941.4494            0            0   -2130.6001   -1.5058705   -2254.2363    8.8655684    7.6778023     7.238693    492.72395 
  211500    452.06154   -176.33047   -134.55767   -176.33047    25.719855    1928.4644            0            0   -2130.5147   -1.5250319    1041.3022    8.8282812    7.6455106    7.2082481    486.53308 
  212000    409.29179   -186.91518   -149.09453   -186.91518    22.794205    1921.3897            0            0   -2131.0991    -1.687384   -650.39373     8.535543    7.3919921    6.9692288    439.72117 
  212500    509.68008   -171.38028   -124.28323   -171.38028    10.520566    1948.8759            0            0   -2130.7768   -1.4035148   -5352.2569    9.0760483    7.8600831    7.4105488    528.65739 
  213000    383.44772   -180.24678   -144.81425   -180.24678    27.779159    1921.7813            0            0   -2129.8073   -1.4790856    393.11996    8.9187645    7.7238714    7.2821273    501.64674 
  213500    392.95368   -182.26632   -145.95539   -182.26632    35.197236    1913.5513            0            0   -2131.0148   -1.5969979    4981.2885    8.6936272    7.5288969    7.0983038    464.60828 
  214000    354.15536   -174.26246   -141.53669   -174.26246    4.9764066    1951.2334            0            0   -2130.4723    -1.404455   -8712.3499    9.0740225    7.8583287    7.4088947    528.30347 
  214500    430.18095   -161.07009   -121.31917   -161.07009    16.123834    1951.7042            0            0   -2128.8981   -1.3187825   -3363.4852    9.2664078    8.0249391    7.5659763    562.62384 
  215000     395.5996   -168.01551   -131.46008   -168.01551    22.837495    1939.4234            0            0   -2130.2764   -1.4020824   -1013.9165     9.079138    7.8627588    7.4130714    529.19746 
  215500    414.88696   -187.35441   -149.01673   -187.35441     30.23583    1913.1734            0            0   -2130.7636   -1.4111332    270.72533    9.0596857    7.8459127    7.3971888     525.8033 
  216000    477.82201   -185.04508   -140.89188   -185.04508    31.869694    1913.6149            0            0   -2130.5297   -1.5106966    3460.7071    8.8561178    7.6696178    7.2309766     491.1499 
  216500    502.52892   -180.70684    -134.2706   -180.70684    27.370819    1920.9038            0            0   -2128.9815   -1.3871195    365.00123    9.1116669    7.8909297    7.4396312    534.90593 
  217000    416.52409   -171.13787   -132.64892   -171.13787    20.372489    1939.2677            0            0    -2130.778   -1.4744144   -653.48094    8.9281732    7.7320196    7.2898094    503.23602 
  217500    344.45987   -195.21676    -163.3869   -195.21676    32.142611    1904.0839            0            0   -2131.4432   -1.6344955    1205.3318     8.626631    7.4708765    7.0436017    453.94953 
  218000     336.9903   -180.40904   -149.26941   -180.40904    24.119366    1925.7687            0            0   -2130.2971   -1.4044922   -432.40584    9.0739425    7.8582594    7.4088293    528.28949 
  218500    428.22708   -183.66775   -144.09738   -183.66775    35.061801    1912.5656            0            0   -2131.2951   -1.6712487    5859.8221    8.5629243     7.415705    6.9915855    443.96653 
  219000    429.17656    -191.4301   -151.77199    -191.4301    30.294531     1909.427            0            0   -2131.1517   -1.3450921   -1424.4021    9.2055935    7.9722724    7.5163217    551.61909 
  219500     415.4572   -183.70081   -145.31044   -183.70081    39.147131    1907.8024            0            0   -2130.6503   -1.5484866    7139.6277    8.7834806    7.6067122    7.1716686    479.16363 
  220000    387.21602   -188.31822   -152.53748   -188.31822    31.272764    1910.6292            0            0   -2130.2202   -1.5303274    1468.8774    8.8180863    7.6366816     7.199924    484.84949 
  220500    442.65001   -164.90896   -124.00584   -164.90896    13.320095    1950.5732            0            0   -2128.8023   -1.3098644   -4152.7946    9.2873901    8.0431104    7.5831083    566.45443 
  221000    366.82317   -175.15143   -141.25509   -175.15143    31.314592    1924.1443            0            0   -2130.6104    -1.526771    3774.2884    8.8249278    7.6426065    7.2055101    485.97887 
  221500    430.65278   -182.61257   -142.81806   -182.61257     32.20616     1916.391            0            0   -2131.2097   -1.4728485    1770.8123    8.9313361    7.7347588     7.292392    503.77106 
  222000    380.14357   -184.88889   -149.76168   -184.88889    31.894113     1912.371            0            0    -2129.154   -1.5459492    1684.3177    8.7882836    7.6108717    7.1755902    479.95011 
  222500    419.73252   -187.10521   -148.31978   -187.10521    37.904037    1905.9897            0            0   -2130.9989   -1.5515024    4885.8592    8.7777859    7.6017805    7.1670189    478.23225 
  223000     460.2797   -189.78104   -147.24884   -189.78104    10.299477    1931.1862            0            0   -2131.2667   -1.5155845   -7775.0832    8.8465868    7.6613638    7.2231946    489.56588 
  223500     473.3334   -200.74345   -157.00503   -200.74345    29.733962    1900.6218            0            0   -2131.0992   -1.5307732   -1900.1834    8.8172303    7.6359403    7.1992251     484.7083 
  224000    415.23386   -190.35067   -151.98094   -190.35067    31.178174    1909.4083            0            0   -2130.9371     -1.40771   -1915.4557    9.0670232    7.8522672    7.4031798    527.08189 
  224500    431.64983    -188.5753   -148.68865    -188.5753    32.898369    1909.4406            0            0   -2130.9143   -1.4852042    2427.6841       8.9065    7.7132501    7.2721134    499.58009 
  225000    384.66817   -167.01167   -131.46637   -167.01167    24.059128    1939.1439            0            0   -2130.2147   -1.3388067   -9.0250461     9.219977    7.9847289    7.5280658     554.2088 
  225500    386.50736   -181.75471   -146.03946   -181.75471    27.361005    1921.8482            0            0   -2130.9639   -1.3891114    -666.7043    9.1073098    7.8871563    7.4360736    534.13893 
  226000    535.30758   -167.28964   -117.82448   -167.28964    22.782385    1940.6312            0            0   -2130.7033   -1.4154925    912.44421    9.0503756    7.8378499    7.3895871    524.18395 
  226500    423.28574   -164.16716   -125.05339   -164.16716     15.83615    1950.1159            0            0   -2130.1192   -1.2093211   -4556.6142    9.5379547    8.2601055     7.787693     613.5496 
  227000    429.87515   -167.04758   -127.32492   -167.04758    16.461182    1947.1618            0            0   -2130.6706    -1.485898   -1555.1095    8.9051137    7.7120495    7.2709814    499.34684 
  227500    490.10194   -188.38823    -143.1003   -188.38823    26.730616    1915.9841            0            0   -2131.1029   -1.4833497    121.58221    8.9102102    7.7164632    7.2751428    500.20469 
  228000    526.72516   -200.51034   -151.83824   -200.51034     33.69128    1896.6315            0            0   -2130.8331   -1.6963531    2966.4251    8.5204732    7.3789413    6.9569244    437.39625 
  228500    453.55831   -184.20427   -142.29316   -184.20427     14.89159    1931.9077            0            0   -2131.0035   -1.2968667   -7360.3723    9.3183143    8.0698915    7.6083578    572.13165 
  229000    353.26697   -173.19475   -140.55108   -173.19475    27.386112    1929.5759            0            0   -2130.1567   -1.4521113   -51.329739    8.9736506    7.7714042    7.3269416    510.96527 
  229500    429.73829   -179.64046   -139.93045   -179.64046    33.963765    1917.2571            0            0   -2130.8614   -1.5833585      6343.85    8.7185189    7.5504538    7.1186278    468.61054 
  230000     381.9212   -181.16845   -145.87698   -181.16845    34.269244    1915.6923            0            0     -2131.13   -1.5934901    5794.2082    8.7000018    7.5344175    7.1035086    465.63106 
  230500    369.18238   -179.79606   -145.68172   -179.79606    13.660323    1936.4154            0            0   -2129.8718    -1.461686   -5913.0027     8.954014    7.7543984    7.3109084    507.61824 
  231000    377.03064   -182.29703   -147.45747   -182.29703    21.496968    1926.8953            0            0   -2130.6893   -1.4086143   -2361.2933    9.0650827    7.8505866    7.4015954    526.74355 
  231500    387.94129   -189.01257   -153.16481   -189.01257    25.752915    1916.0805            0            0    -2130.846   -1.5463353    84.080641     8.787552    7.6102381    7.1749929    479.83026 
  232000     464.1529   -179.53217   -136.64207   -179.53217    21.643085    1928.3845            0            0   -2129.5597   -1.6053195    255.07179    8.6785793    7.5158651    7.0860172    462.19986 
  232500    489.95951   -172.37681   -127.10204   -172.37681    22.685741    1934.2812            0            0   -2129.3437   -1.3051332   -852.89195    9.2985989    8.0528174    7.5922602    568.50783 
  233000    303.84809   -192.47869   -164.40158   -192.47869    26.168964    1912.1778            0            0   -2130.8255   -1.3391237   -3493.7176    9.2192494    7.9840988    7.5274718    554.07762 
  233500    457.81043   -183.54678   -141.24275   -183.54678    32.415608    1914.7292            0            0   -2130.6916   -1.4405621     1540.423     8.997568    7.7921172    7.3464699    515.06177 
  234000    425.14265   -175.55596   -136.27061   -175.55596     15.91757    1938.3864            0            0   -2129.8599   -1.4432946   -3869.3296    8.9918862    7.7871966    7.3418308    514.08663 
  234500    345.34129   -187.86283   -155.95153   -187.86283    24.255419    1918.6236            0            0   -2130.7419   -1.4323853   -2865.5234    9.0146565    7.8069163    7.3604226    518.00203 
  235000    425.22468   -181.88398   -142.59105   -181.88398    28.315928    1920.8216            0            0   -2131.0215   -1.7525452    6885.6896    8.4284177    7.2992189    6.8817616    423.37193 
  235500    395.61816   -182.81731   -146.26017   -182.81731    24.045849    1923.9821            0            0   -2130.8453   -1.4749955   -1162.4591    8.9270007    7.7310042    7.2888521     503.0378 
  236000    416.16455   -182.83667   -144.38094   -182.83667    36.729956    1911.3675            0            0   -2130.9342   -1.4822867    4244.6521    8.9123396    7.7183073    7.2768813    500.56339 
  236500    350.76879   -178.71175   -146.29892   -178.71175    28.234662    1923.5408            0            0   -2130.4872   -1.4347913   -9.9539135    9.0096146    7.8025499     7.356306    517.13336 
  237000    439.22636   -183.99764   -143.41088   -183.99764    37.505105    1909.2855            0            0   -2130.7882   -1.4215217    3369.2215    9.0375622    7.8267532     7.379125     521.9607 
  237500    373.17205   -187.94132   -153.45831   -187.94132    28.038007     1914.974            0            0   -2130.9534   -1.4151966   -1342.6983    9.0510064    7.8383962    7.3901021    524.29356 
  238000    422.23652   -183.65295   -144.63614   -183.65295    31.042105    1916.1077            0            0   -2130.8027   -1.5269786    1383.2467    8.8245279    7.6422602    7.2051836    485.91281 
  238500    492.30922    -180.2375   -134.74562    -180.2375    22.828938     1927.416            0            0   -2130.4824    -1.408081   -1194.0154    9.0662268    7.8515774    7.4025295    526.94301 
  239000    486.86012   -181.57935   -136.59099   -181.57935    28.629944    1920.8656            0            0   -2131.0749    -1.529343    1775.1925    8.8199779    7.6383198    7.2014685    485.16158 
  239500    346.38131   -177.37869   -145.37129   -177.37869    34.055389    1919.1166            0            0   -2130.5507   -1.4275554    4158.4633    9.0248116    7.8157108    7.3687142     519.7546 
  240000    361.81355   -194.46082    -161.0274   -194.46082     29.50624    1907.2184            0            0   -2131.1855   -1.6444239     1989.255    8.6092345    7.4558108    7.0293976    451.20876 
  240500    439.33198   -174.54506   -133.94854   -174.54506     26.93154    1929.1731            0            0   -2130.6497   -1.4825234      1580.87    8.9118652    7.7178965    7.2764941    500.48347 
  241000    381.34383   -194.60022    -159.3621   -194.60022    33.534217    1902.7919            0            0   -2130.9264   -1.5530738    529.82087    8.7748244    7.5992158    7.1646009    477.74837 
  241500     417.7188   -196.90955    -158.3102   -196.90955    36.775904    1897.8997            0            0   -2131.5851   -1.6498488    4806.6717     8.599788    7.4476299    7.0216846    449.72512 
  242000     368.6244   -200.34925   -166.28647   -200.34925    28.134854    1902.4163            0            0   -2130.9004   -1.7078758    953.92727    8.5012679     7.362309    6.9412434    434.44521 
  242500    358.34373   -193.41296   -160.30017   -193.41296     29.54997    1908.0453            0            0   -2131.0082   -1.6208285    1086.9023      8.65081    7.4918162    7.0633438    457.77728 
  243000    398.44458   -192.76229   -155.94397   -192.76229    23.463396    1914.4198            0            0   -2130.6455   -1.5188192    -3315.963    8.8403021     7.655921    7.2180631    488.52324 
  243500    439.83183   -165.87933   -125.23663   -165.87933    22.653954     1941.834            0            0   -2130.3673   -1.5009221    1093.0661    8.8753008    7.6862308    7.2466394    494.34842 
  244000    350.38645   -172.82673   -140.44923   -172.82673    27.630849    1930.4712            0            0   -2130.9288   -1.5113889    2637.1057    8.8547653    7.6684465    7.2298722    490.92491 
  244500    367.76746   -190.37493   -156.39133   -190.37493    34.909969    1905.5602            0            0   -2130.8451   -1.4147707    1348.1411    9.0519146    7.8391827    7.3908437    524.45141 
  245000    386.62295   -180.63012   -144.90418   -180.63012    23.237297    1927.4717            0            0   -2131.3391   -1.5640867    864.63427    8.7541811    7.5813381    7.1477457    474.38449 
  245500    326.67635   -185.73183   -155.54527   -185.73183    32.818164     1912.492            0            0    -2131.042   -1.3997536    1310.0264    9.0841703     7.867117    7.4171803    530.07792 
  246000    324.44225   -173.64533   -143.66521   -173.64533    34.966887    1921.8525            0            0   -2130.4647   -1.5010259    6645.5803    8.8750963    7.6860537    7.2464724    494.31425 
  246500    438.20291    -186.7499   -146.25771    -186.7499    32.723622    1911.2952            0            0   -2130.7688   -1.6233929     4243.023    8.6462526    7.4878693    7.0596227    457.05416 
  247000    328.37293   -190.92833   -160.58499   -190.92833    22.518762    1917.7093            0            0   -2131.1564   -1.6019126   -1596.7608    8.6847274    7.5211895    7.0910371    463.18286 
  247500    408.83363   -194.95001   -157.17169   -194.95001    39.059896    1897.4276            0            0   -2131.4375   -1.5431014    4936.0855    8.7936865    7.6155508    7.1800017    480.83585 
  248000    285.60005   -176.46269   -150.07179   -176.46269    34.704195      1919.27            0            0   -2130.4369   -1.4383594     1989.719    9.0021585    7.7960927    7.3502181    515.85052 
  248500    482.24408   -187.56827   -143.00645   -187.56827    32.373469    1911.1275            0            0   -2131.0693   -1.5780502    3534.2008    8.7282839    7.5589105    7.1266008    470.18687 
  249000    481.09118   -188.04749    -143.5922   -188.04749    37.624237    1905.2201            0            0   -2130.8918   -1.5598512    5492.8003    8.7620974    7.5881938    7.1542094     475.6726 
  249500    416.34768   -187.04103   -148.56838   -187.04103    25.157402     1918.312            0            0   -2130.5105   -1.5921556   -330.80264    8.7024317    7.5365218    7.1054926    466.02131 
  250000    417.63502   -195.13914   -156.54753   -195.13914    30.034875    1906.1025            0            0   -2131.2765   -1.5926982    635.80839    8.7014434     7.535666    7.1046857    465.86256 
  250500    375.60521   -193.60094    -158.8931   -193.60094    15.538932    1922.0965            0            0   -2131.2364   -1.4624547   -7941.1029    8.9524448    7.7530394    7.3096271    507.35141 
  251000     313.2574   -212.00905   -183.06246   -212.00905     35.24112    1883.4959            0            0   -2130.7461   -1.3981155   -3279.2313    9.0877166    7.8701882    7.4200759    530.69896 
  251500    332.61971   -217.91682   -187.18106   -217.91682    34.387795    1878.9162            0            0   -2131.2208   -1.5593991   -1539.8101     8.762944     7.588927    7.1549006     475.8105 
  252000    405.00129    -198.4087   -160.98451    -198.4087     33.65695     1898.587            0            0   -2130.6527   -1.4421974   -493.14637    8.9941658    7.7891709    7.3436921    514.47773 
  252500    359.22416    -189.7271   -156.53295    -189.7271    29.864753    1911.5584            0            0   -2131.1503   -1.5543736    450.51742    8.7723778    7.5970969    7.1626033    477.34887 
  253000    349.87106   -211.55059   -179.22072   -211.55059    46.638016    1872.7324            0            0    -2130.921   -1.4872783    3458.1578    8.9023579    7.7096629    7.2687314    498.88341 
  253500    368.74062   -175.88327   -141.80975   -175.88327    23.008177    1931.0344            0            0   -2129.9258   -1.5371266     365.9141    8.8050653    7.6254051    7.1892925    482.70484 
  254000    284.26639    -186.8214   -160.55373    -186.8214    22.810467     1921.048            0            0   -2130.6799   -1.6413648   -1182.5356    8.6145797    7.4604399    7.0337619    452.04971 
  254500    352.15626   -199.76257   -167.22153   -199.76257    36.294445    1894.2447            0            0   -2130.3017   -1.3841584   -864.00591    9.1181598    7.8965527    7.4449326    536.05025 
  255000    453.67272   -197.08957   -155.16789   -197.08957    31.064852    1902.4735            0            0   -2130.6279   -1.5576707   -136.51081     8.766184    7.5917329     7.157546    476.33846 
  255500    401.59657    -195.9559   -158.84633    -195.9559    22.313865    1912.6667            0            0   -2130.9364   -1.4216968     -4642.12    9.0371912    7.8264319    7.3788221    521.89642 
  256000    392.77541   -207.64715   -171.35269   -207.64715    22.590173     1901.006            0            0   -2131.2433   -1.6267705   -5025.8423    8.6402644    7.4826834    7.0547333    456.10518 
  256500    288.47666   -199.74405   -173.08733   -199.74405     20.60785    1910.9263            0            0   -2131.2782   -1.4484366   -6788.3943    8.9812332    7.7779708    7.3331326    512.26162 
  257000    314.39818   -197.41179    -168.3598   -197.41179     23.78838    1910.2642            0            0   -2131.4643   -1.5909701   -2478.0846    8.7045928    7.5383934    7.1072571    466.36858 
  257500    360.19138    -186.7617   -153.47818    -186.7617    23.675073    1920.9391            0            0   -2131.3759   -1.5009569   -1395.1107    8.8752322    7.6861714    7.2465834    494.33696 
  258000    466.12018   -195.90202   -152.83013   -195.90202    33.617755     1901.638            0            0   -2131.1578    -1.394393   -640.88615    9.0957964    7.8771855     7.426673    532.11574 
  258500    354.55544   -200.59129   -167.82856   -200.59129    41.963687    1888.4115            0            0   -2130.9665   -1.6930558    6737.1559     8.526001    7.3837285    6.9614378     438.2481 
  259000    444.65257   -206.41414   -165.32597   -206.41414    35.175404    1889.5277            0            0   -2131.1173   -1.4793966   -1133.6712    8.9181394    7.7233301    7.2816169    501.54127 
  259500    273.47843   -191.73036   -166.45955   -191.73036    40.943072    1898.0725            0            0    -2130.746   -1.5500182    4771.2712    8.7805866    7.6042059    7.1693057    478.69016 
  260000    478.60358   -181.90927   -137.68385   -181.90927    28.200753    1920.1747            0            0   -2130.2847   -1.6043799      3022.74    8.6802731     7.517332    7.0874003    462.47055 
  260500    273.94632   -201.39687   -176.08283   -201.39687    29.301651    1900.0798            0            0   -2130.7784   -1.6618598    762.18211    8.5790198    7.4296441    7.0047274    446.47477 
  261000     358.2906     -180.146   -147.03812     -180.146    28.037677    1922.3647            0            0   -2130.5484   -1.5561498    857.53195    8.7690389    7.5942053    7.1598771    476.80401 
  261500    372.97757   -177.92332   -143.45829   -177.92332    38.675829    1913.9999            0            0   -2130.5991   -1.4833563    5226.0933     8.910197    7.7164518     7.275132    500.20246 
  262000    255.98771   -187.23881   -163.58424   -187.23881     28.01905     1915.335            0            0   -2130.5928    -1.592977    905.59378    8.7009357    7.5352263    7.1042712    465.78103 
  262500    434.95767   -206.05805   -165.86574   -206.05805    23.947879    1901.3391            0            0    -2131.345   -1.5472807   -4043.4242    8.7857618    7.6086878    7.1735313    479.53707 
  263000    314.32577   -192.96658   -163.92127   -192.96658    37.806133    1900.2966            0            0   -2131.0693   -1.4446486    2465.0254     8.989076    7.7847629    7.3395363    513.60479 
  263500    448.72014   -198.11055   -156.64651   -198.11055    33.200199    1899.1323            0            0    -2130.443   -1.4049608   -1405.7744    9.0729335    7.8573856    7.4080055    528.11328 
  264000    427.85385   -191.21203   -151.67615   -191.21203     25.53647    1914.4341            0            0   -2131.1826   -1.4482144   -2428.9062    8.9816924    7.7783685    7.3335076    512.34021 
  264500    393.97186   -187.91829   -151.51327   -187.91829    15.782428    1926.1711            0            0   -2129.8718    -1.536134   -5535.9393    8.8069614    7.6270472    7.1908406    483.01675 
  265000    414.79769   -199.84086   -161.51143   -199.84086    27.519133    1903.7401            0            0   -2131.1001   -1.4405195    -4218.036    8.9976566     7.792194    7.3465423      515.077 
  265500    393.96434   -186.44953   -150.04521   -186.44953     23.55008    1920.9613            0            0   -2130.9609   -1.5122684   -596.85474    8.8530485    7.6669597    7.2284705    490.63942 
  266000    313.61453   -203.97999    -175.0004   -203.97999    36.530635    1890.7857            0            0   -2131.2964   -1.6815332    2554.3472    8.5454312    7.4005556    6.9773025    441.25116 
  266500    344.38229    -201.6701   -169.84741    -201.6701    19.732094    1909.2815            0            0   -2130.6837   -1.3865645   -7688.7797    9.1128825    7.8919824    7.4406237    535.12005 
  267000    284.77227    -192.0831   -165.76869    -192.0831    25.510567    1913.4558            0            0   -2131.0495    -1.539043   -2439.9868    8.8014092    7.6222388    7.1863073    482.10379 
  267500    358.38565   -195.13585   -162.01919   -195.13585    30.788648    1904.5451            0            0   -2130.4696   -1.6141883    892.07245     8.662656    7.5020751    7.0730159    459.66042 
  268000    440.08575    -187.4316   -146.76542    -187.4316    24.492554    1918.9366            0            0   -2130.8607   -1.5105302   -2253.2741    8.8564429    7.6698994     7.231242    491.20399 
  268500    324.00588   -183.45129   -153.51149   -183.45129    28.510455    1919.0074            0            0   -2130.9691   -1.5860444    2697.1679    8.7135946    7.5461892     7.114607    467.81695 
  269000    282.03648   -191.95453   -165.89292   -191.95453    21.811766    1917.2215            0            0   -2130.9878   -1.5545408   -2672.7727    8.7720633    7.5968246    7.1623465    477.29752 
  269500    413.89617   -199.55058   -161.30446   -199.55058    27.697824    1903.8411            0            0   -2131.0895   -1.5212871   -1239.3516    8.8355191    7.6517789    7.2141579    487.73074 
  270000    358.26858   -194.48791   -161.38206   -194.48791    26.775674    1909.3169            0            0   -2130.5805   -1.4930297    -1818.988    8.8909122    7.6997506     7.259386    496.96164 
  270500    304.60971   -193.45598   -165.30849   -193.45598    40.448138    1896.9615            0            0   -2130.8656   -1.4513347    2688.0086     8.975251    7.7727901    7.3282482    511.23869 
  271000    402.02975   -186.91803   -149.76842   -186.91803    26.492489    1916.8061            0            0   -2130.2166    -1.385514   -2359.7016    9.1151852    7.8939766    7.4425038     535.5258 
  271500    376.42857     -185.974   -151.19007     -185.974    24.317024    1920.8349            0            0    -2131.126    -1.516307   -2154.2757    8.8451816    7.6601468    7.2220472    489.33262 
  272000    275.11955   -192.89502   -167.47257   -192.89502    27.307054    1910.7815            0            0   -2130.9836   -1.5278971   -1852.8178    8.8227592    7.6407284    7.2037394    485.62069 
  272500    337.16667   -197.23321   -166.07729   -197.23321    28.775577    1904.8847            0            0   -2130.8935   -1.5510164   -1347.8752    8.7787026    7.6025744    7.1677675     478.3821 
  273000     286.6209   -208.10093   -181.61569   -208.10093    35.057283    1887.6691            0            0   -2130.8273   -1.5365428    -565.9434    8.8061804    7.6263708    7.1902029    482.88826 
  273500    336.56975    -194.8319   -163.73114    -194.8319    24.637137    1911.6965            0            0   -2131.1656   -1.5493272   -1924.3996    8.7818919    7.6053363    7.1703715    478.90367 
  274000    406.68833   -191.67694   -154.09686   -191.67694    46.191473    1893.4861            0            0   -2131.3545   -1.5539992    7528.9315    8.7730823     7.597707    7.1631784    477.46387 
  274500    361.82979   -192.75587   -159.32095   -192.75587    20.639993    1917.6601            0            0   -2131.0559   -1.6088634   -1817.1307    8.6722024    7.5103425    7.0808106    461.18176 
  275000    280.14551   -200.30594   -174.41907   -200.30594    32.378198    1898.7725            0            0   -2131.4567   -1.5772788    276.19164    8.7297065    7.5601425    7.1277624    470.41682 
  275500    292.69751   -191.23052   -164.18378   -191.23052     29.07713    1910.3734            0            0    -2130.681   -1.5591651    481.13971    8.7633824    7.5893066    7.1552585    475.88191 
  276000    278.29359   -192.36306   -166.64731   -192.36306    35.792915    1903.3101            0            0   -2131.4661     -1.51479     2387.723    8.8481332     7.662703    7.2244572    489.82265 
  276500    377.22373   -199.64253   -164.78512   -199.64253    48.138356    1883.2349            0            0   -2131.0158   -1.6374928    8347.9391    8.6213642    7.4663154    7.0393014     453.1186 
  277000    350.67117   -193.85531    -161.4515   -193.85531    34.054767     1902.771            0            0   -2130.6811   -1.4872055    124.07038    8.9025032    7.7097887      7.26885    498.90784 
  277500    335.61257    -185.4488   -154.43648    -185.4488    34.673119    1909.8334            0            0   -2129.9554   -1.4219245    1196.7645    9.0367088    7.8260141    7.3784283    521.81286 
  278000    309.75838   -186.62154   -157.99828   -186.62154    31.672944    1912.6876            0            0   -2130.9821   -1.6073043    4047.8474    8.6750055    7.5127701    7.0830993    461.62911 
  278500    389.63922   -184.82727   -148.82262   -184.82727      36.2126    1909.2849            0            0   -2130.3248   -1.3493673    2469.8011    9.1958611     7.963844    7.5083753    549.87138 
  279000    313.22369   -196.23139   -167.28792   -196.23139    25.885341    1909.5794            0            0   -2131.6961   -1.6352935   -1094.3546    8.6252275    7.4696611    7.0424558      453.728 
  279500    304.53303   -194.30643   -166.16602   -194.30643    23.487767    1913.5227            0            0   -2131.3169   -1.4764203   -4712.0032    8.9241281    7.7285165    7.2865067    502.55234 
  280000    402.91656   -197.58817   -160.35662   -197.58817    26.235554    1907.4036            0            0   -2131.2274    -1.610744   -302.33034    8.6688261    7.5074186    7.0780538    460.64333 
  280500    369.30351   -196.06591   -161.94038   -196.06591     21.87529    1912.7427            0            0   -2130.6839   -1.2927714   -4816.9513    9.3281435    8.0784038    7.6163832    573.94405 
  281000    360.00167   -209.15523   -175.88923   -209.15523    56.731414    1865.0393            0            0   -2130.9259   -1.5042703    8595.9385    8.8687111    7.6805239    7.2412589    493.24811 
  281500     386.4263   -194.68519   -158.97742   -194.68519    39.936653    1895.4469            0            0   -2130.0688   -1.5125074     4380.228    8.8525821    7.6665558    7.2280897    490.56188 
  282000    320.78291   -194.31493   -164.67295   -194.31493    26.855623    1909.0104            0            0   -2130.1809   -1.4144258   -3277.0403    9.0526502    7.8398197    7.3914443    524.57927 
  282500    287.57415   -199.46258   -172.88926   -199.46258    43.394483    1888.4354            0            0   -2131.2925   -1.4747974    2130.5089    8.9274003    7.7313503    7.2891784    503.10536 
  283000    415.11687   -203.69996   -165.34104   -203.69996    27.849186     1899.675            0            0   -2131.2241   -1.4566699   -4314.7809      8.96428     7.763289    7.3192905    509.36624 
  283500    336.84402   -205.25521    -174.1291   -205.25521    32.938154    1893.2484            0            0   -2131.4417   -1.4522066   -1751.7153    8.9734544    7.7712342    7.3267813    510.93175 
  284000    346.52285   -204.16743   -172.14694   -204.16743    34.914258    1891.9487            0            0   -2131.0303   -1.5041019   -1083.5554     8.869042    7.6808105    7.2415291    493.30333 
  284500    312.64837    -207.1519    -178.2616    -207.1519    42.830802    1881.0756            0            0   -2131.0583   -1.4854331    1362.0165    8.9060425    7.7128538    7.2717398    499.50311 
  285000    312.08864   -191.36865   -162.53006   -191.36865     27.79743    1911.8609            0            0    -2131.027   -1.5219582   -1182.8865    8.8342202     7.650654    7.2130973    487.51566 
  285500    294.16516   -201.24853   -174.06617   -201.24853     40.54429    1889.3735            0            0   -2131.1663     -1.74107    6215.0308    8.4468941      7.31522    6.8968474    426.16233 
  286000    341.13497   -199.97838   -168.45577   -199.97838    35.051242    1895.8546            0            0   -2130.8842   -1.5991007    1543.9948    8.6898148    7.5255953     7.095191    463.99732 
  286500    398.94766   -202.07454   -165.20974   -202.07454    15.767047    1913.2416            0            0   -2131.0832   -1.5615218   -7118.4402    8.7589715    7.5854867    7.1516571    475.16368 
  287000    274.17006   -204.21583   -178.88112   -204.21583    36.238868     1890.935            0            0   -2131.3897   -1.6195321    1403.1866    8.6531177    7.4938147     7.065228    458.14373 
  287500    308.07621   -204.33933   -175.87152   -204.33933     28.89837    1898.4609            0            0   -2131.6986   -1.7138799    847.48969    8.4913291    7.3537017    6.9331284    432.92326 
  288000    372.65077   -190.74372   -156.30888   -190.74372    32.846585    1906.7289            0            0   -2130.3192    -1.520776    1821.9976    8.8365088    7.6526359    7.2149659    487.89464 
  288500    290.57676   -192.71454   -165.86376   -192.71454    37.515385    1900.8618            0            0   -2131.0918   -1.6546975    4831.3419      8.59138    7.4403483    7.0148194    448.40731 
  289000      385.562   -197.63807   -162.01017   -197.63807    33.163051    1900.1163            0            0   -2130.9174   -1.6282308    2296.0206    8.6376806    7.4804458    7.0526237    455.69613 
  289500    312.04141   -201.42815   -172.59393   -201.42815    35.053772    1893.3117            0            0   -2129.7936   -1.6261031    954.09175    8.6414464     7.483707    7.0556984    456.29239 
  290000    360.89014    -201.5423    -168.1942    -201.5423    29.402669    1900.4533            0            0   -2131.3983   -1.7230909    604.13193    8.4761716     7.340575    6.9207523    430.60902 
  290500    333.24245   -214.07443   -183.28113   -214.07443    40.986808    1876.4218            0            0    -2131.483   -1.6324613    1769.4818    8.6302128    7.4739784    7.0465262     454.5152 
  291000    297.58227   -206.83369   -179.33557   -206.83369    38.948267    1885.2068            0            0   -2130.9888   -1.6223269     2472.883    8.6481458     7.489509    7.0611685    457.35447 
  291500    319.74244   -199.64864   -170.10281   -199.64864    21.679306    1909.3515            0            0   -2130.6795   -1.5162323   -6052.3818    8.8453267    7.6602725    7.2221657    489.35671 
  292000    271.54133   -209.76244   -184.67063   -209.76244    33.247255    1887.5427            0            0   -2130.5524   -1.6265465   -411.23275     8.640661    7.4830269    7.0550571    456.16799 
  292500    400.00344   -214.16689   -177.20453   -214.16689    40.840201    1876.5832            0            0   -2131.5903   -1.6206962    2179.0544    8.6510455    7.4920201    7.0635361    457.81466 
  293000    292.46253   -210.55912   -183.53408   -210.55912    37.157187    1883.5781            0            0   -2131.2944   -1.5244394    255.74604    8.8294247     7.646501    7.2091818    486.72217 
  293500     390.7619   -204.41315   -168.30475   -204.41315     27.68659    1899.3335            0            0   -2131.4333   -1.4960191   -3364.3502     8.884986    7.6946184    7.2545473    495.96857 
  294000    312.35266   -212.72625   -183.86327   -212.72625    31.690234    1887.0206            0            0   -2131.4371   -1.4977032    -3084.504    8.8816545    7.6917333    7.2518272    495.41088 
  294500    336.84024   -214.94275   -183.81699   -214.94275    29.049245    1887.6497            0            0   -2131.6417   -1.5042141   -4486.3767    8.8688214    7.6806195     7.241349    493.26652 
  295000    354.53831   -210.80584   -178.04469   -210.80584    47.567734    1872.7395            0            0   -2131.1131   -1.6789811    7284.8792    8.5497588    7.4043033     6.980836    441.92187 
  295500    316.37314   -207.42147   -178.18698   -207.42147    25.605922    1897.8183            0            0   -2130.8457    -1.515223   -4908.4111    8.8472904    7.6619731    7.2237691     489.6827 
  296000    324.77136   -210.56554   -180.55501   -210.56554    32.502599    1888.0553            0            0   -2131.1234   -1.5283853   -2152.9287    8.8218198    7.6399149    7.2029724    485.46559 
  296500    308.05437   -214.77217   -186.30637   -214.77217     24.26152    1892.3772            0            0   -2131.4109   -1.4919781   -7182.0823    8.8930005    7.7015592    7.2610911    497.31192 
  297000    298.60474   -201.53827   -173.94567   -201.53827    42.546936    1887.0031            0            0   -2131.0883   -1.4603737    2666.9111    8.9566953    7.7567204    7.3130976     508.0744 
  297500    310.76375   -211.41222   -182.69606   -211.41222    29.392281    1889.6764            0            0   -2130.4809   -1.5709761   -3438.7454    8.7413653    7.5702393    7.1372817     472.3041 
  298000    297.51917   -207.56888   -180.07659   -207.56888    33.667288    1889.6408            0            0    -2130.877    -1.595069   -549.14545    8.6971303    7.5319307    7.1011641    465.17015 
  298500    285.93844   -200.21511   -173.79294   -200.21511    32.807309    1898.5882            0            0   -2131.6107   -1.5859197     35.76081     8.713823     7.546387    7.1147936    467.85375 
  299000    356.69374    -210.2488   -177.28848    -210.2488    27.105018    1893.6272            0            0    -2130.981   -1.4759882   -5051.3983    8.9249988    7.7292704    7.2872175    502.69944 
  299500    406.17216   -211.45352   -173.92114   -211.45352    41.795346     1878.121            0            0   -2131.3699   -1.4511482    1853.2846    8.9756354    7.7731231    7.3285621    511.30439 
  300000    370.59118   -210.65897   -176.41445   -210.65897    41.754899    1879.2649            0            0   -2131.6788   -1.5044969    2167.6555    8.8682658    7.6801383    7.2408953    493.17382 
Loop time of 21.1285 on 4 procs for 100000 steps with 48 atoms

Performance: 817.853 ns/day, 0.029 hours/ns, 4732.948 timesteps/s
98.7% CPU use with 4 MPI tasks x no OpenMP threads

MPI task timing breakdown:
Section |  min time  |  avg time  |  max time  |%varavg| %total
---------------------------------------------------------------
Pair    | 5.6784     | 7.0454     | 8.6151     |  39.9 | 33.35
Bond    | 0.012227   | 0.013195   | 0.013915   |   0.5 |  0.06
Kspace  | 5.697      | 7.2883     | 8.6751     |  39.8 | 34.50
Neigh   | 0.36647    | 0.36776    | 0.36838    |   0.1 |  1.74
Comm    | 2.5024     | 2.6654     | 2.8459     |   9.9 | 12.62
Output  | 0.015854   | 0.016111   | 0.016757   |   0.3 |  0.08
Modify  | 2.85       | 3.3157     | 3.7327     |  22.2 | 15.69
Other   |            | 0.4167     |            |       |  1.97

Nlocal:    12 ave 15 max 9 min
Histogram: 1 0 0 1 0 0 1 0 0 1
Nghost:    1847 ave 1859 max 1835 min
Histogram: 1 0 0 0 1 1 0 0 0 1
Neighs:    3082.75 ave 3743 max 1719 min
Histogram: 1 0 0 0 0 0 0 1 0 2

Total # of neighbors = 12331
Ave neighs/atom = 256.896
Ave special neighs/atom = 2
Neighbor list builds = 4642
Dangerous builds = 194

unfix		1
unfix		2
unfix		3

include 	in.dump
dump            myDump all atom ${out_freq2} dump.water
dump            myDump all atom 500 dump.water
dump            myDump2 all dcd ${out_freq2} dump.dcd
dump            myDump2 all dcd 500 dump.dcd

fix 		1 all shake 1e-6 200 0 b 1 a 1
  0 = # of size 2 clusters
  0 = # of size 3 clusters
  0 = # of size 4 clusters
  16 = # of frozen angles
  find clusters CPU = 5.45071e-05 secs
fix             2 all nph iso ${pressure} ${pressure} ${pressureDamp}
fix             2 all nph iso 1 ${pressure} ${pressureDamp}
fix             2 all nph iso 1 1 ${pressureDamp}
fix             2 all nph iso 1 1 1000
fix             3 all temp/csvr ${temperature} ${temperature} ${tempDamp} ${seed}
fix             3 all temp/csvr 300 ${temperature} ${tempDamp} ${seed}
fix             3 all temp/csvr 300 300 ${tempDamp} ${seed}
fix             3 all temp/csvr 300 300 100 ${seed}
fix             3 all temp/csvr 300 300 100 745821

run             500000
PPPM initialization ...
  extracting TIP4P info from pair style
  using 12-bit tables for long-range coulomb (../kspace.cpp:323)
  G vector (1/distance) = 0.344529
  grid = 8 8 6
  stencil order = 5
  estimated absolute RMS force accuracy = 0.0131801
  estimated relative force accuracy = 3.96916e-05
  using double precision KISS FFT
  3d grid and FFT values/proc = 1573 128
Per MPI rank memory allocation (min/avg/max) = 9.165 | 9.167 | 9.168 Mbytes
Step Temp PotEng TotEng E_pair E_vdwl E_coul E_bond E_angle E_long E_tail Press Lx Ly Lz Volume 
  300000    370.59118   -210.66097   -176.41646   -210.66097    41.754899    1901.9082            0            0   -2154.3241   -1.5044969      2249.48    8.8682658    7.6801383    7.2408953    493.17382 
  300500    344.94424   -209.43947   -177.56486   -209.43947     41.73506    1903.1157            0            0   -2154.2902   -1.5930343    1962.7012    8.7008313    7.5351359    7.1041859    465.76426 
  301000     311.3326   -199.24968   -170.48095   -199.24968    34.961457     1919.619            0            0   -2153.8301   -1.6567962    3690.3846    8.5877509    7.4372054    7.0118563    447.83932 
  301500    295.67921    -206.7475   -179.42523    -206.7475    32.719691    1914.1003            0            0   -2153.5675   -1.5932791   -1528.0246    8.7003857      7.53475    7.1038221     465.6927 
  302000    285.35898   -209.84394   -183.47531   -209.84394    37.817213    1906.1232            0            0   -2153.7844   -1.6317942    2754.9784    8.6313886    7.4749968    7.0474863    454.70101 
  302500    299.87236   -206.37266   -178.66292   -206.37266    39.293874    1907.6559            0            0   -2153.3224   -1.5295463    1351.1394    8.8195871    7.6379813    7.2011494    485.09709 
  303000    294.22381   -201.05977   -173.87198   -201.05977    20.373281    1931.8515            0            0   -2153.2845   -1.5653647   -5318.0405     8.751798    7.5792743       7.1458    473.99719 
  303500     275.6209   -205.15928    -179.6905   -205.15928    42.473598    1905.4691            0            0   -2153.1019    -1.626919    3404.6578    8.6400016    7.4824559    7.0545188    456.06357 
  304000    296.07952   -212.10398   -184.74472   -212.10398     36.15143    1904.9893            0            0   -2153.2447   -1.5068491   -2632.8191    8.8636489      7.67614    7.2371257    492.40397 
  304500    271.40589    -202.0935   -177.01421    -202.0935    35.162379    1916.5899            0            0   -2153.8457   -1.5128069   -445.84505    8.8519979    7.6660499    7.2276127    490.46477 
  305000    297.82811   -202.61366   -175.09282   -202.61366    30.240263    1920.8342            0            0   -2153.6882   -1.6066274    -930.9324    8.6762237    7.5138251     7.084094    461.82362 
  305500    361.01508     -207.627   -174.26737     -207.627    35.842589    1910.2844            0            0    -2153.754   -1.4684315   -774.52026    8.9402823    7.7425063    7.2996964    505.28639 
  306000     275.8387   -209.90634   -184.41744   -209.90634    30.939973    1913.1432            0            0   -2153.9896   -1.7023443   -1513.3382    8.5104658    7.3702746    6.9487534    435.85688 
  306500     355.1939   -203.18865   -170.36692   -203.18865    33.996861     1916.197            0            0   -2153.3825   -1.5541508   -650.37917    8.7727971      7.59746    7.1629456     477.4173 
  307000    286.03634   -200.85637   -174.42515   -200.85637    31.087498    1922.1427            0            0   -2154.0865   -1.6957248    1605.4818    8.5215253    7.3798524    6.9577835     437.5583 
  307500    340.94404   -201.15933   -169.65436   -201.15933     37.36218    1915.5656            0            0   -2154.0871   -1.6154964      3005.45    8.6603171    7.5000496    7.0711063    459.28821 
  308000    300.34158   -206.97309      -179.22   -206.97309     32.09038    1914.4234            0            0   -2153.4869   -1.6226791   -259.18362    8.6475202    7.4889671    7.0606577    457.25521 
  308500    369.28449    -208.6025   -174.47873    -208.6025    32.309576    1912.8409            0            0    -2153.753   -1.6377216    300.16696    8.6209629    7.4659678    7.0389737    453.05532 
  309000    296.84669   -198.48811   -171.05796   -198.48811    26.760144    1927.8438            0            0   -2153.0921   -1.5510861   -2128.4015    8.7785711    7.6024605    7.1676601    478.36061 
  309500    293.13529   -193.21846   -166.13126   -193.21846    15.382497    1944.9802            0            0   -2153.5812   -1.5522404   -7878.5513    8.7763945    7.6005754    7.1658829    478.00486 
  310000    266.22979   -206.42286   -181.82187   -206.42286    26.131731    1921.2906            0            0   -2153.8452   -1.7174084   -2197.4611    8.4855098    7.3486621    6.9283769     432.0338 
  310500    237.12663   -206.49952   -184.58781   -206.49952     41.18505    1906.0734            0            0   -2153.7579   -1.7223975    4065.6542    8.4773088    7.3415598    6.9216809    430.78236 
  311000    282.77935   -194.09043   -167.96017   -194.09043    34.691334    1924.7207            0            0   -2153.5025   -1.4923461    1299.3937    8.8922694     7.700926    7.2604942    497.18926 
  311500    267.80216   -193.13374   -168.38746   -193.13374    19.066176    1941.3396            0            0   -2153.5395   -1.5951737   -4371.8233    8.6969399    7.5317658    7.1010086     465.1396 
  312000    266.78161   -203.82735   -179.17537   -203.82735     38.41434    1911.9074            0            0   -2154.1491   -1.5893802    2989.7205    8.7074943    7.5409062    7.1096262     466.8351 
  312500    407.12756   -198.94151   -161.32084   -198.94151    37.363015    1917.3132            0            0   -2153.6177   -1.5657119     3053.282    8.7511511     7.578714    7.1452718    473.89208 
  313000    277.17294   -212.81174   -187.19954   -212.81174    52.437208    1888.9901            0            0    -2154.239   -1.5556735    7053.6404    8.7699337    7.5949802    7.1606076    476.94998 
  313500    284.48047    -211.6325   -185.34505    -211.6325    42.315843    1900.1436            0            0   -2154.0919   -1.4824202   -112.12929    8.9120721    7.7180756     7.276663    500.51832 
  314000    275.48235   -211.14675   -185.69077   -211.14675    36.122593    1905.9304            0            0   -2153.1997   -1.5319496   -2316.7516    8.8149728    7.6339852    7.1973818    484.33609 
  314500    333.48343    -199.7338   -168.91823    -199.7338    36.682748     1916.593            0            0   -2153.0096   -1.6402879     3373.593    8.6164645    7.4620721    7.0353008    452.34648 
  315000    335.39501   -202.37318   -171.38097   -202.37318    43.076677    1908.5497            0            0   -2153.9996   -1.6159903    5771.5905    8.6594349    7.4992856    7.0703859    459.14786 
  315500    238.27504   -200.04966   -178.03183   -200.04966    29.322721     1924.381            0            0   -2153.7534   -1.5170007   -2466.2732    8.8438331     7.658979    7.2209462    489.10885 
  316000    323.00704   -207.03528   -177.18778   -207.03528    35.106143    1911.8517            0            0   -2153.9931   -1.4899732   -1477.1426    8.8969874     7.705012    7.2643464    497.98108 
  316500    337.01401   -208.67942   -177.53761   -208.67942    41.723524     1903.621            0            0    -2154.024    -1.475646    1340.3915    8.9256887     7.729868    7.2877809    502.81604 
  317000    255.05625   -204.67724   -181.10874   -204.67724    35.969812    1913.2328            0            0   -2153.8798   -1.3666655   -1561.6948    9.1568983    7.9301012    7.4765623    542.91154 
  317500    245.93656    -216.4966    -193.7708    -216.4966    42.780719    1894.8222            0            0   -2154.0996   -1.5224959    329.80907    8.8331802    7.6497533    7.2122481     487.3435 
  318000    243.26906   -210.77569   -188.29638   -210.77569    57.017542    1886.2268            0            0     -2154.02   -1.4959114    7638.3738    8.8851992    7.6948031    7.2547214    496.00427 
  318500    342.64735   -215.69812   -184.03575   -215.69812    33.698987    1904.7376            0            0   -2154.1347    -1.533359   -3041.9821    8.8122711    7.6316455     7.195176     483.8909 
  319000    236.34224   -203.85455   -182.01532   -203.85455    36.305464     1913.708            0            0    -2153.868   -1.3706287   -2497.6831     9.148064    7.9224505    7.4693492    541.34171 
  319500    305.26876   -206.79395   -178.58556   -206.79395    52.017058    1894.8814            0            0   -2153.6925   -1.5912005    8162.7058    8.7041726    7.5380295     7.106914    466.30104 
  320000     329.8586   -218.94881   -188.46819   -218.94881    32.713125    1902.2155            0            0   -2153.8775   -1.6020054   -1928.3491    8.6845597    7.5210443    7.0909002    463.15603 
  320500    317.10199   -199.33534   -170.03349   -199.33534    28.240411    1926.3399            0            0   -2153.9156   -1.4855776   -1971.7445    8.9057537    7.7126038     7.271504    499.45452 
  321000    301.32758    -204.3812   -176.53699    -204.3812    42.204602    1907.6166            0            0   -2154.2024   -1.5715823    4940.7787    8.7402413    7.5692659     7.136364    472.12194 
  321500    262.43335   -205.71863   -181.46845   -205.71863    27.438135    1920.5844            0            0   -2153.7411   -1.5168198   -3971.6761    8.8441846    7.6592834    7.2212332    489.16717 
  322000    292.96172   -209.19205   -182.12089   -209.19205    38.789394    1905.2701            0            0   -2153.2516   -1.6611886    2677.8362    8.5801751    7.4306446    7.0056707    446.65517 
  322500    287.95076   -206.05642    -179.4483   -206.05642     33.28018    1914.6676            0            0   -2154.0042   -1.6374576     62.06768     8.621426    7.4663689    7.0393519    453.12834 
  323000    287.09302   -209.98576    -183.4569   -209.98576    19.473205     1924.045            0            0    -2153.504   -1.5315149   -7786.0568    8.8158067    7.6347074    7.1980627    484.47356 
  323500    316.54178   -209.57658    -180.3265   -209.57658    24.972699    1919.5958            0            0    -2154.145   -1.6187503   -5278.6073    8.6545106     7.495021    7.0663653      458.365 
  324000    289.54794   -210.70157   -183.94586   -210.70157    38.637808    1904.7888            0            0   -2154.1282   -1.5417619   -182.10488    8.7962324    7.6177556    7.1820805    481.25361 
  324500    286.26085   -212.19059   -185.73863   -212.19059    46.673808    1894.7772            0            0   -2153.6416   -1.6193501    4229.9071    8.6534419    7.4940955    7.0654927    458.19522 
  325000    301.59791   -203.65572   -175.78654   -203.65572    41.568027    1908.8948            0            0   -2154.1186   -1.5990758    3803.0667      8.68986    7.5256344    7.0952279    464.00456 
  325500    233.13151   -210.30767   -188.76513   -210.30767    40.636661    1902.6541            0            0   -2153.5984   -1.6674714    2792.9873    8.5693852    7.4213003    6.9968608    444.97222 
  326000    390.57089    -198.0314   -161.94065    -198.0314    18.522787    1937.0212            0            0   -2153.5754   -1.4179348   -7067.7269    9.0451765    7.8333473    7.3853421    523.28109 
  326500    296.86284   -198.73828   -171.30664   -198.73828    34.848151    1919.8632            0            0   -2153.4496   -1.5734994    2246.5898    8.7366903    7.5661907    7.1334646    471.54672 
  327000    323.17515   -200.09372   -170.23068   -200.09372    21.309398    1932.1006            0            0   -2153.5037   -1.6080122   -3992.2316    8.6737323    7.5116675    7.0820597    461.42588 
  327500    283.14007   -206.47655   -180.31296   -206.47655    34.857106    1912.9097            0            0   -2154.2433   -1.6053819    320.70599    8.6784668    7.5157677    7.0859254     462.1819 
  328000    388.85554   -205.78856   -169.85632   -205.78856    29.951831    1918.3158            0            0   -2154.0562   -1.5348913   -2325.3192    8.8093377    7.6291051    7.1927808    483.40783 
  328500    261.46564   -199.27348   -175.11272   -199.27348    31.788064    1922.5811            0            0   -2153.6426   -1.5036132   -1349.7299    8.8700028    7.6816425    7.2423136    493.46366 
  329000    297.97873   -197.92948   -170.39472   -197.92948    26.952209    1928.9548            0            0   -2153.8365   -1.5230471   -3282.2106    8.8321144    7.6488303    7.2113779    487.16712 
  329500    254.98481   -188.79478   -165.23288   -188.79478    27.557909    1936.6865            0            0   -2153.0392   -1.5615035    391.31693    8.7590057    7.5855164     7.151685    475.16926 
  330000    261.59525   -205.02785   -180.85511   -205.02785    33.183654    1915.6811            0            0   -2153.8926   -1.6230435   -93.571867     8.646873    7.4884066    7.0601292    457.15255 
  330500    264.83025   -205.88708   -181.41541   -205.88708    32.336767    1915.1068            0            0   -2153.3307   -1.5556912   -1694.8857    8.7699004    7.5949514    7.1605805    476.94455 
  331000    238.19316   -205.88038   -183.87012   -205.88038    33.581523    1914.3152            0            0   -2153.7771   -1.5068532   -1341.7946    8.8636408    7.6761329    7.2371191    492.40262 
  331500    243.92126    -206.3749   -183.83533    -206.3749    44.796906    1902.3851            0            0   -2153.5569   -1.5908892    5597.4045    8.7047403    7.5385211    7.1073776    466.39229 
  332000    271.91903   -196.10269   -170.97598   -196.10269    19.504534    1938.1378            0            0    -2153.745   -1.4324248   -5787.2654    9.0145736    7.8068445     7.360355    517.98774 
  332500    260.47828   -187.87041   -163.80088   -187.87041    28.971567    1936.8266            0            0   -2153.6686   -1.4438159   -2100.5608    8.9908039    7.7862594    7.3409471    513.90103 
  333000    237.38619   -210.52078   -188.58508   -210.52078    22.810659    1920.8232            0            0   -2154.1546   -1.5086392   -7687.8499    8.8601418    7.6731027    7.2342621    491.81971 
  333500    281.45331   -199.28074   -173.27302   -199.28074    32.214683    1922.0202            0            0   -2153.5156   -1.5456225   -1762.7438    8.7889026    7.6114078    7.1760956    480.05153 
  334000     345.5618   -201.56278   -169.63111   -201.56278    25.697522    1926.5799            0            0   -2153.8402   -1.6971775   -1059.5152    8.5190934    7.3777463    6.9557978    437.18379 
  334500    221.14727   -201.75886   -181.32372   -201.75886     29.18427    1922.3025            0            0   -2153.2456   -1.6708711      75.2537    8.5635692    7.4162635    6.9921121    444.06684 
  335000    300.56007   -198.46842   -170.69513   -198.46842    37.832463    1917.3732            0            0   -2153.6741   -1.6829069    4242.4376    8.5431054    7.3985414    6.9754035    440.89098 
  335500    267.77958   -207.43685   -182.69265   -207.43685    41.932573    1904.1381            0            0   -2153.5075   -1.5468919    2080.1078    8.7864979    7.6093252    7.1741322     479.6576 
  336000     279.6026   -202.38858   -176.55187   -202.38858    36.736991    1914.7659            0            0   -2153.8915   -1.6181718    3335.6255    8.6555418     7.495914    7.0672072    458.52886 
  336500    351.09775   -200.80313   -168.35991   -200.80313    29.308273    1923.4497            0            0   -2153.5611   -1.5441148   -2264.7121    8.7917624    7.6138844    7.1784307    480.52029 
  337000      352.683   -206.13468   -173.54497   -206.13468    22.547069    1925.4434            0            0   -2154.1251   -1.5694599   -4421.4109    8.7441793    7.5726763    7.1395793    472.76038 
  337500    318.83468   -213.76508   -184.30312   -213.76508    53.546214    1886.8428            0            0    -2154.154   -1.3947329    4038.7998    9.0950576    7.8765456    7.4260697    531.98608 
  338000      304.929    -207.7348    -179.5578    -207.7348    36.809987    1909.2987            0            0   -2153.8435   -1.5774535    238.42828    8.7293841    7.5598633    7.1274991     470.3647 
  338500    368.18102   -204.55219   -170.53038   -204.55219    38.905173    1910.6332            0            0   -2154.0906   -1.5497145    2054.9224    8.7811602    7.6047027    7.1697741    478.78398 
  339000    359.55246   -197.10231   -163.87782   -197.10231    28.465519    1927.1229            0            0   -2152.6908   -1.4317067   -3775.4029    9.0160804    7.8081494    7.3615852    518.24752 
  339500    331.77115   -197.64855    -166.9912   -197.64855     28.06651    1927.8386            0            0   -2153.5537    -1.610034   -802.61455    8.6701001    7.5085219     7.079094    460.84644 
  340000    349.67143    -206.2436   -173.93217    -206.2436    24.134363    1923.4641            0            0    -2153.842   -1.6054312   -3554.8209     8.678378    7.5156907    7.0858529     462.1677 
  340500    323.07195   -202.90143   -173.04793   -202.90143    25.327542    1925.8378            0            0   -2154.0668   -1.5734847   -3865.1955    8.7367175    7.5662142    7.1334868    471.55113 
  341000    261.44795   -206.53055   -182.37142   -206.53055    34.037679    1913.1616            0            0   -2153.7299   -1.4952976   -1673.9052    8.8864148    7.6958558    7.2557139    496.20787 
  341500    280.31336   -205.36867   -179.46629   -205.36867    32.416284    1916.0972            0            0   -2153.8822   -1.6281042     -393.565    8.6379046    7.4806397    7.0528065    455.73157 
  342000    214.95067   -210.96829   -191.10575   -210.96829    38.651824      1903.98            0            0   -2153.6001   -1.6323267    469.73805    8.6304498    7.4741838    7.0467198    454.55266 
  342500    228.93222   -209.02476   -187.87026   -209.02476    31.092586    1913.8984            0            0   -2154.0158   -1.6381393   -1880.8927    8.6202301    7.4653332    7.0383754     452.9398 
  343000    367.12346   -217.20733   -183.28325   -217.20733    41.645118    1895.5088            0            0   -2154.3613   -1.4936921    609.97831    8.8895975    7.6986121    7.2583126    496.74123 
  343500    341.93632   -191.05732   -159.46066   -191.05732    24.486953    1937.9919            0            0   -2153.5362   -1.6197237   -730.83904    8.6527765    7.4935192    7.0649494    458.08953 
  344000    306.47238   -202.34209   -174.02248   -202.34209    20.653295    1930.8774            0            0   -2153.8728   -1.5471367   -5539.7059    8.7860344    7.6089239    7.1737538     479.5817 
  344500    288.74684   -212.42567   -185.74398   -212.42567    31.965252    1909.8453            0            0   -2154.2362   -1.5622401   -3824.8505    8.7576288    7.5843239    7.1505608    474.94521 
  345000    288.06236   -198.77194    -172.1535   -198.77194    38.460346    1916.6553            0            0   -2153.8876   -1.5691365    3914.3757      8.74478    7.5731966    7.1400698    472.85782 
  345500    237.52636   -202.76378   -180.81513   -202.76378    28.534276    1922.3999            0            0    -2153.698   -1.4448265    -4532.106    8.9887071    7.7844435    7.3392351    513.54156 
  346000    325.54701   -208.95949   -178.87728   -208.95949    37.099587    1907.9707            0            0   -2154.0298   -1.5416559    151.12281    8.7964339    7.6179301     7.182245    481.28668 
  346500    291.58239    -202.1665   -175.22279    -202.1665    34.064407    1917.5094            0            0   -2153.7403   -1.5653892    640.71965    8.7517523    7.5792347    7.1457626    473.98976 
  347000    258.39529   -204.10522   -180.22818   -204.10522    30.076871    1919.9716            0            0   -2154.1537   -1.6694652   -376.25403    8.5659725    7.4183448    6.9940744    444.44082 
  347500    267.52034    -203.2938   -178.57355    -203.2938    21.268206    1929.2262            0            0   -2153.7883   -1.5809975   -4986.5434    8.7228567    7.5542104    7.1221695    469.31033 
  348000    332.29898   -207.49059   -176.78447   -207.49059    38.013236    1908.3617            0            0   -2153.8655   -1.5364833     399.9696    8.8062941    7.6264692    7.1902957    482.90695 
  348500    315.45047   -199.20257   -170.05334   -199.20257    24.025113    1930.6243            0            0    -2153.852   -1.4964476   -4715.2002    8.8841379     7.693884    7.2538549    495.82656 
  349000    371.63417   -204.88942   -170.54852   -204.88942    44.233255    1905.1357            0            0   -2154.2583   -1.7243049    7304.7859    8.4741818    7.3388518    6.9191277    430.30584 
  349500    306.09264   -206.88698   -178.60246   -206.88698    38.405897    1908.3901            0            0    -2153.683   -1.5019655    237.45513    8.8732451    7.6844505    7.2449609      494.005 
  350000     367.2219   -213.28891   -179.35573   -213.28891    32.287145    1908.5162            0            0   -2154.0922   -1.5233251   -2919.1906     8.831577    7.6483649    7.2109392     487.0782 
  350500    276.61207   -200.16544   -174.60507   -200.16544    19.294731    1934.3321            0            0   -2153.7923   -1.4849001   -7447.5572     8.907108    7.7137766    7.2726098    499.68241 
  351000    276.43911   -208.35322   -182.80883   -208.35322    27.476188    1918.1452            0            0   -2153.9746   -1.5492078   -4011.2134    8.7821174    7.6055317    7.1705556    478.94057 
  351500    244.99657   -216.10132   -193.46238   -216.10132    42.860903    1894.6664            0            0   -2153.6286   -1.5445234    858.76542    8.7909868    7.6132128    7.1777975    480.39314 
  352000    272.69643   -204.37327   -179.17473   -204.37327    44.901261    1904.4673            0            0   -2153.7418   -1.6561364    4395.9492    8.5888911    7.4381929    7.0127873    448.01773 
  352500    349.99996   -214.02266   -181.68087   -214.02266    27.674195    1912.3944            0            0   -2154.0913   -1.5398798   -5326.9176    8.7998147    7.6208579    7.1850054    481.84182 
  353000      260.068   -212.91631    -188.8847   -212.91631    47.681158    1893.1746            0            0   -2153.7721   -1.5518283    2998.0606    8.7771713    7.6012482    7.1665171     478.1318 
  353500    353.14138   -199.81724   -167.18517   -199.81724    51.615641    1902.6111            0            0    -2154.044   -1.7215754    12190.922    8.4786579    7.3427282    6.9227824    430.98806 
  354000    200.51504   -201.03299   -182.50437   -201.03299    25.536511    1927.2127            0            0   -2153.7822   -1.6038375   -4477.3327    8.6812515    7.5181793    7.0881991    462.62695 
  354500    234.43478   -207.46927    -185.8063   -207.46927    30.337064    1916.2707            0            0    -2154.077   -1.4483384   -3326.8994    8.9814361    7.7781466    7.3332984    512.29635 
  355000    332.40487   -203.69024   -172.97433   -203.69024     30.81823    1919.5015            0            0     -2154.01   -1.5471752   -1557.5777    8.7859615    7.6088608    7.1736943    479.56977 
  355500    298.64743   -210.26774   -182.67119   -210.26774    22.005441    1921.7493            0            0   -2154.0225   -1.5210801   -7022.1215    8.8359199    7.6521259     7.214485     487.7971 
  356000    245.42624    -219.9014   -197.22276    -219.9014    39.768399    1893.9412            0            0    -2153.611   -1.6311027   -1088.4845    8.6326082     7.476053    7.0484821    454.89379 
  356500    320.05558   -225.04044   -195.46567   -225.04044    34.267764    1894.6939            0            0   -2154.0021   -1.5657019   -3889.6365    8.7511697    7.5787301    7.1452869     473.8951 
  357000    300.04253   -218.26575   -190.54029   -218.26575     44.85537    1891.1594            0            0   -2154.2806   -1.6991986    3624.6092    8.5157143    7.3748199    6.9530388    436.66376 
  357500    322.99543   -212.97679   -183.13036   -212.97679    56.956755    1883.8243            0            0   -2153.7579   -1.6977104    10709.573    8.5182018    7.3769742    6.9550698    437.04654 
  358000    402.52016   -214.73187   -177.53694   -214.73187     48.13832    1891.2767            0            0   -2154.1469   -1.6856856    6778.0101    8.5384088    7.3944739    6.9715687    440.16422 
  358500    334.49086   -209.39073   -178.48206   -209.39073    32.969036    1911.4408            0            0   -2153.8006   -1.6699114    -233.1153    8.5652095     7.417684    6.9934514    444.32206 
  359000    267.79137   -207.45893   -182.71364   -207.45893    33.193375     1913.242            0            0   -2153.8943   -1.6510754   -815.64077     8.597658    7.4457852    7.0199454    449.39103 
  359500    300.15487   -209.03434   -181.29849   -209.03434    31.047717    1913.9517            0            0   -2154.0338   -1.5122056   -3902.2851     8.853171    7.6670658    7.2285705    490.65978 
  360000    399.66706   -196.68607   -159.75479   -196.68607    22.606124    1933.8817            0            0   -2153.1739   -1.4821616   -5495.4665    8.9125903    7.7185244    7.2770861    500.60564 
  360500    238.66855   -209.52078   -187.46658   -209.52078    33.002734    1911.4918            0            0   -2154.0153    -1.478146   -3655.2761    8.9206538    7.7255076    7.2836699    501.96562 
  361000    350.74839   -203.92765   -171.51671   -203.92765    27.957169    1921.7645            0            0   -2153.6493   -1.4900492   -3842.7936    8.8968361    7.7048809    7.2642229    497.95567 
  361500    347.59986   -203.82514   -171.70513   -203.82514    30.554999      1919.63            0            0   -2154.0101   -1.5493984   -2470.1809    8.7817573    7.6052198    7.1702616    478.88166 
  362000     264.4451   -213.02049   -188.58441   -213.02049    42.567432    1898.4768            0            0   -2154.0647   -1.5258116    473.57757    8.8267771     7.644208      7.20702    486.28445 
  362500    290.67489   -207.16719   -180.30735   -207.16719    44.942701    1901.9615            0            0   -2154.0714   -1.5109829    3986.6845    8.8555584    7.6691334    7.2305198    491.05684 
  363000    323.96024     -213.652   -183.71642     -213.652    43.238572    1897.1059            0            0   -2153.9965   -1.5637104    2308.2985    8.7548832    7.5819461     7.148319    474.49864 
  363500    278.32053   -201.55146   -175.83322   -201.55146    33.537784    1918.5263            0            0   -2153.6155   -1.5408525   -1878.3078    8.7979625    7.6192539    7.1834931    481.53763 
  364000    331.42315   -203.39347   -172.76828   -203.39347    53.134055    1896.3807            0            0   -2152.9082   -1.5418049    8255.3474    8.7961505    7.6176847    7.1820136    481.24017 
  364500    347.14742   -209.02881   -176.95062   -209.02881    40.428659    1904.6598            0            0   -2154.1172   -1.6109479    2892.7272    8.6684603    7.5071018    7.0777552    460.58502 
  365000    298.86271    -212.1772   -184.56076    -212.1772    32.381968    1909.3008            0            0   -2153.8599   -1.5075795   -4172.1942    8.8622173    7.6749001    7.2359568    492.16541 
  365500    336.01045   -203.07943   -172.03034   -203.07943    37.058916    1913.5175            0            0   -2153.6559   -1.5241277    1259.4727    8.8300266    7.6470222    7.2096733    486.82173 
  366000    271.17802   -223.70315   -198.64492   -223.70315      36.1657    1894.4297            0            0   -2154.2985   -1.6021393   -2721.0041    8.6843178    7.5208348    7.0907027    463.11734 
  366500    307.55077   -224.50249   -196.08323   -224.50249    62.176981    1866.9923            0            0   -2153.6718   -1.5649867     8107.411    8.7525025    7.5798844    7.1463752    474.11166 
  367000    278.58563    -216.5346   -190.79187    -216.5346    40.753125    1896.1279            0            0   -2153.4156   -1.5433287    57.004038    8.7932548    7.6151769    7.1796492    480.76504 
  367500    388.96051   -218.84362   -182.90168   -218.84362    35.610817    1899.4175            0            0   -2153.8719   -1.4898005   -3276.7422    8.8973312    7.7053096    7.2646271     498.0388 
  368000     370.7177   -204.26481    -170.0086   -204.26481    28.748155    1921.0328            0            0   -2154.0457   -1.4802546   -3626.5791     8.916416    7.7218376    7.2802098    501.25057 
  368500    317.80107    -204.4052   -175.03875    -204.4052    25.008628    1923.8604            0            0   -2153.2742   -1.3682556   -5789.3665    9.1533496     7.927028    7.4736649    542.28059 
  369000    244.18898   -209.82545   -187.26114   -209.82545    26.837103    1916.7087            0            0   -2153.3712    -1.558224   -5197.5034    8.7651462    7.5908342    7.1566987    476.16932 
  369500    304.25542   -206.95113   -178.83637   -206.95113    24.166772    1922.6663            0            0   -2153.7842   -1.4647256   -6115.7506     8.947816    7.7490307    7.3058477    506.56484 
  370000    331.92282   -214.20328   -183.53191   -214.20328    32.451356    1907.1546            0            0   -2153.8092   -1.5184635   -4220.3911    8.8409922    7.6565187    7.2186266    488.63766 
  370500    292.37742   -210.84542   -183.82825   -210.84542    29.698769    1913.5698            0            0   -2154.1139   -1.5536704   -3614.2347     8.773701    7.5982429    7.1636837     477.5649 
  371000    281.92038    -202.5334   -176.48252    -202.5334    33.996952    1917.5368            0            0   -2154.0672   -1.5431445   -323.72387    8.7936046    7.6154799    7.1799349    480.82243 
  371500    373.69371   -211.43599   -176.90478   -211.43599    39.536457    1902.8635            0            0    -2153.836   -1.5040977    393.27704    8.8690502    7.6808176    7.2415358    493.30469 
  372000    317.79679   -216.79372   -187.42767   -216.79372     28.94591     1908.343            0            0   -2154.0826   -1.5921222   -4975.0633    8.7024926    7.5365746    7.1055423    466.03109 
  372500    304.22326   -210.18997   -182.07819   -210.18997    48.508973    1895.3282            0            0   -2154.0271   -1.5669223    5021.6316    8.7488971     7.576762    7.1434314    473.52601 
  373000    247.82264   -215.25234   -192.35226   -215.25234    39.518662    1899.4201            0            0   -2154.1911    -1.582583    83.553717    8.7199427    7.5516868    7.1197902    468.84015 
  373500     287.4527   -201.80754   -175.24544   -201.80754    36.440019    1915.4863            0            0   -2153.7338   -1.6616557     2849.097     8.579371    7.4299482    7.0050141     446.5296 
  374000    242.67467   -193.77927   -171.35489   -193.77927    21.453614     1937.963            0            0   -2153.1959   -1.5255413   -4591.2344    8.8272984    7.6446595    7.2074457    486.37063 
  374500    333.23481   -208.98001   -178.18741   -208.98001    36.898963    1908.1293            0            0   -2154.0083   -1.6060521    1779.6763    8.6772595    7.5147221    7.0849396    461.98903 
  375000    267.89876   -218.88983   -194.13461   -218.88983    32.537712    1902.6662            0            0   -2154.0937   -1.5201958   -4008.3911    8.8376328    7.6536093    7.2158836    488.08084 
  375500     276.7178   -205.60048   -180.03035   -205.60048    34.985187    1913.0955            0            0   -2153.6812   -1.5824337    457.40619     8.720217    7.5519243    7.1200142     468.8844 
  376000    278.72882    -206.7035   -180.94753    -206.7035     32.65269    1914.2211            0            0   -2153.5773   -1.4434794   -2845.2933    8.9915025    7.7868643    7.3415175    514.02083 
  376500    261.38255   -190.90506   -166.75198   -190.90506    24.274678     1938.273            0            0   -2153.4527   -1.6198723   -774.88744    8.6525119      7.49329    7.0647333     458.0475 
  377000    333.19146   -202.84405   -172.05546   -202.84405    25.546807    1925.2603            0            0   -2153.6511   -1.4773204   -4915.7792    8.9223153    7.7269465    7.2850265    502.24615 
  377500    295.66517   -197.88399   -170.56302   -197.88399    36.303588    1918.6944            0            0    -2152.882    -1.444614    450.27221    8.9891478    7.7848252    7.3395949    513.61711 
  378000     355.0197   -196.90736   -164.10173   -196.90736    33.960028    1922.1719            0            0   -2153.0393   -1.3575402    -1270.112    9.1773698      7.94783    7.4932773    546.56096 
  378500    373.22416   -202.25115   -167.76333   -202.25115     42.06483    1909.6223            0            0   -2153.9383   -1.7641474    7528.2915    8.4099002    7.2831823    6.8666421    420.58757 
  379000    333.05249   -212.68535    -181.9096   -212.68535    30.136814    1911.0731            0            0   -2153.8953   -1.6849354   -1797.3993    8.5396757    7.3955711    6.9726031    440.36018 
  379500     252.9323   -204.44747   -181.07524   -204.44747    37.481177    1911.9417            0            0   -2153.8703   -1.7367418    3186.9433    8.4539053    7.3212918     6.902572    427.22439 
  380000    286.37629   -197.89852   -171.43588   -197.89852    23.136335    1932.7097            0            0   -2153.7446   -1.6766505   -2003.1483    8.5537184    7.4077324    6.9840689    442.53614 
  380500    258.88766   -187.44225    -163.5197   -187.44225    37.803575    1928.5616            0            0   -2153.8074   -1.5723262    5372.6067    8.7388626    7.5680719    7.1352383    471.89855 
  381000    377.52792   -209.78368   -174.89817   -209.78368    41.882782    1902.0812            0            0   -2153.7476   -1.5947706    2569.5659    8.6976726    7.5324003    7.1016068    465.25717 
  381500    368.34301   -198.32039   -164.28361   -198.32039    37.523218    1918.2421            0            0   -2154.0857   -1.6684392    5287.2072     8.567728    7.4198651    6.9955077    444.71412 
  382000    336.30453    -207.6107   -176.53444    -207.6107    24.502377    1921.9481            0            0   -2154.0612   -1.5638956    -4900.542    8.7545376    7.5816469    7.1480368    474.44246 
  382500    300.77278   -211.51408   -183.72114   -211.51408    24.680564    1917.5313            0            0   -2153.7259   -1.6000096   -5334.7596    8.6881692    7.5241701    7.0938473    463.73376 
  383000    355.78925   -205.83289   -172.95615   -205.83289     45.60738    1902.3569            0            0   -2153.7971   -1.6881408    7811.0346    8.5342673    7.3908873    6.9681872    439.52404 
  383500    296.85509   -203.88959   -176.45866   -203.88959     38.11236    1911.2877            0            0   -2153.2897   -1.6893491     3691.778    8.5322322    7.3891249    6.9665256    439.20968 
  384000    330.98972   -198.66635   -168.08121   -198.66635    35.396344    1920.0009            0            0   -2154.0636   -1.7649051    4673.9932    8.4086965    7.2821399    6.8656593      420.407 
  384500    230.16626   -199.89654     -178.628   -199.89654    30.348538    1923.6454            0            0   -2153.8905    -1.642605    161.51915    8.6124111    7.4585618    7.0319912    451.70839 
  385000    383.13362   -200.73276   -165.32925   -200.73276    33.478225     1920.031            0            0    -2154.242   -1.5944891    1749.2567    8.6981845    7.5328436    7.1020248    465.33932 
  385500    349.90319   -201.85755    -169.5247   -201.85755    39.098741    1912.9601            0            0   -2153.9163   -1.6608876    4288.9911    8.5806934    7.4310934    7.0060939    446.73611 
  386000    311.84018   -200.93927   -172.12365   -200.93927    25.851013    1926.8671            0            0   -2153.6574   -1.5702086   -4123.6005    8.7427892    7.5714725    7.1384444    472.53495 
  386500    336.28291   -200.59332   -169.51906   -200.59332    35.136273    1917.7369            0            0   -2153.4665   -1.5333481    122.81033     8.812292    7.6316636     7.195193    483.89435 
  387000    253.33434   -201.32693   -177.91754   -201.32693    30.115675    1922.5255            0            0   -2153.9681   -1.5008354   -2624.9951    8.8754716    7.6863787    7.2467789    494.37697 
  387500    324.18559   -207.45006   -177.49365   -207.45006    59.075067    1887.0934            0            0   -2153.6185   -1.5449729     9010.596    8.7901342    7.6124744    7.1771013    480.25337 
  388000    298.08052    -196.0541   -168.50993    -196.0541    21.256562    1936.4806            0            0   -2153.7912   -1.5996348   -4836.4504    8.6888476    7.5247577    7.0944013     463.8424 
  388500    262.63858   -205.04786   -180.77871   -205.04786    35.290628    1912.7116            0            0   -2153.0501   -1.6049233    630.24026    8.6792934    7.5164835    7.0866003    462.31397 
  389000    363.14773   -208.50709   -174.95038   -208.50709    32.941375    1912.0424            0            0   -2153.4908   -1.5639134     -2229.38    8.7545043     7.581618    7.1480096    474.43704 
  389500    249.62033   -198.18998   -175.12379   -198.18998    31.596715    1923.5914            0            0   -2153.3781   -1.6477647    821.72884    8.6034123    7.4507686    7.0246438    450.29395 
  390000    418.18221   -207.23421   -168.59204   -207.23421    23.096824    1923.2659            0            0    -2153.597    -1.752531   -2988.2693    8.4284406    7.2992387    6.8817802    423.37538 
  390500    285.21304   -206.86271   -180.50757   -206.86271    56.786606    1890.2542            0            0   -2153.9035   -1.5354514    8345.0118    8.8082663    7.6281773    7.1919061    483.23148 
  391000    307.94571   -208.46869   -180.01293   -208.46869    34.156463    1910.9169            0            0    -2153.542   -1.5498126   -1363.5257    8.7809748    7.6045421    7.1696227    478.75366 
  391500    239.50503   -195.24955   -173.11806   -195.24955    26.040856    1932.1888            0            0   -2153.4792   -1.5611003   -3211.6999    8.7597597    7.5861693    7.1523006    475.29198 
  392000    286.12893   -205.40396   -178.96419   -205.40396    39.821003    1908.4187            0            0   -2153.6437   -1.6264281    2591.3721    8.6408707    7.4832085    7.0552284    456.20121 
  392500    295.31432   -202.02607   -174.73752   -202.02607    38.972219    1912.8018            0            0   -2153.8001   -1.6527363      3702.84    8.5947768    7.4432901     7.017593     448.9394 
  393000    300.05376   -208.40141   -180.67491   -208.40141    36.897716    1908.8134            0            0   -2154.1125   -1.6310677    2235.6763    8.6326699    7.4761064    7.0485324    454.90353 
  393500    388.02523   -198.37795   -162.52243   -198.37795    20.912001     1934.095            0            0    -2153.385   -1.4869509   -5358.3174    8.9030112    7.7102287    7.2692648    498.99325 
  394000    302.97012   -197.20104   -169.20505   -197.20104     31.64738      1924.95            0            0   -2153.7984   -1.5468509   -217.31047    8.7865754    7.6093924    7.1741956    479.67031 
  394500    323.38583   -201.59245   -171.70994   -201.59245    31.692085     1920.536            0            0   -2153.8205   -1.4341658   -1660.5596    9.0109244    7.8036842    7.3573754    517.35892 
  395000    323.65183   -213.32891   -183.42183   -213.32891    37.640348    1902.9924            0            0   -2153.9617   -1.5330973   -356.87014    8.8127725    7.6320797    7.1955853     483.9735 
  395500    350.32465   -205.66985   -173.29806   -205.66985      46.2848    1901.6682            0            0   -2153.6229   -1.4103743    2660.9978    9.0613102    7.8473195    7.3985152    526.08619 
  396000    324.64526    -210.6904   -180.69152    -210.6904    30.665628     1912.821            0            0    -2154.177   -1.4089511   -3748.0263    9.0643603     7.849961    7.4010055    526.61762 
  396500    263.09365   -212.21411   -187.90292   -212.21411    38.957167    1902.4095            0            0   -2153.5808   -1.5522092    298.55144    8.7764533    7.6006264    7.1659309    478.01447 
  397000    326.33212   -202.41728   -172.26252   -202.41728    25.368766    1926.0763            0            0   -2153.8624   -1.5331647   -4488.7331    8.8126434    7.6319679    7.1954799    483.95223 
  397500    417.56338   -211.36245   -172.77746   -211.36245    39.718286    1903.2382            0            0    -2154.319   -1.5160058    576.58226    8.8457672     7.660654    7.2225254    489.42982 
  398000    305.82115   -200.10503   -171.84559   -200.10503    34.048827    1919.7516            0            0   -2153.9054   -1.4239635   -2000.5876    9.0323934    7.8222769    7.3749048    521.06566 
  398500    295.06379   -196.60892   -169.34352   -196.60892    29.408274      1927.75            0            0   -2153.7672   -1.4185614   -3082.4702    9.0438445    7.8321938    7.3842545    523.04996 
  399000    366.95089   -207.91373   -174.00559   -207.91373    25.959579    1919.9995            0            0   -2153.8728   -1.6309385   -3216.7741    8.6328978    7.4763038    7.0487186    454.93957 
  399500     322.8279   -196.44326   -166.61231   -196.44326    37.585695    1920.0288            0            0   -2154.0577   -1.6172747    4500.0204    8.6571418    7.4972997    7.0685137     458.7832 
  400000    241.04494   -192.07662   -169.80283   -192.07662    25.167795    1935.6012            0            0   -2152.8456   -1.4934576   -3665.3728    8.8900629    7.6990151    7.2586926    496.81925 
  400500    340.74658   -200.53579   -169.04906   -200.53579    23.748612    1929.2407            0            0   -2153.5251   -1.6807121   -2312.7545    8.5468226    7.4017605    6.9784386    441.46673 
  401000    318.63554   -211.35281   -181.90926   -211.35281     30.50699    1911.0679            0            0   -2152.9277    -1.663357   -2454.8504    8.5764451    7.4274143    7.0026251     446.0729 
  401500    269.17632    -215.4576   -190.58433    -215.4576    32.739213    1906.0872            0            0    -2154.284   -1.5317289   -3860.1873     8.815396    7.6343518    7.1977274    484.40586 
  402000    337.76359   -200.01456   -168.80348   -200.01456    40.309741      1912.76            0            0   -2153.0843   -1.6003044    3551.6809    8.6876356     7.523708    7.0934117    463.64832 
  402500     293.4154   -203.06701   -175.95393   -203.06701    24.155072    1926.7289            0            0    -2153.951   -1.7476636   -1221.7995     8.436258    7.3060088    6.8881631    424.55452 
  403000     230.3064   -201.14612   -179.86463   -201.14612    33.368158    1918.9374            0            0   -2153.4517   -1.5890056     1217.204    8.7081785    7.5414987    7.1101849    466.94516 
  403500    385.38974   -199.09288    -163.4809   -199.09288    44.923088    1910.0095            0            0   -2154.0255   -1.7037071    8596.8032     8.508196    7.3683089    6.9469001    435.50823 
  404000    320.37198    -199.7089    -170.1049    -199.7089    25.925663    1927.7815            0            0    -2153.416   -1.4892338   -4268.4135    8.8984596    7.7062869    7.2655485    498.22832 
  404500    297.86376   -207.37956   -179.85543   -207.37956    36.393887    1909.8493            0            0   -2153.6228   -1.6331638    1820.9535    8.6289751    7.4729067    7.0455157    454.31969 
  405000    218.28161   -208.17741   -188.00707   -208.17741    24.412567    1921.1564            0            0   -2153.7464   -1.5350246   -5928.0367    8.8090826    7.6288842    7.1925726    483.36584 
  405500    222.32074   -210.44758     -189.904   -210.44758    37.394521      1906.01            0            0   -2153.8521   -1.6010029    -16.39993    8.6863721    7.5226138      7.09238    463.44606 
  406000     313.0148   -210.44539   -181.52123   -210.44539    36.810045    1906.1429            0            0   -2153.3983    -1.600162   -21.048052    8.6878933    7.5239312    7.0936221    463.68959 
  406500    318.45758   -202.73612   -173.30901   -202.73612    33.102669     1917.864            0            0   -2153.7028   -1.4870008    -1940.024    8.9029116    7.7101425    7.2691835    498.97651 
  407000    268.41604   -205.06034   -180.25733   -205.06034    40.068015    1909.0165            0            0   -2154.1449   -1.6168246    3447.3106     8.657945    7.4979953    7.0691695    458.91091 
  407500    289.48171    -212.0463   -185.29671    -212.0463    34.900269    1906.7579            0            0   -2153.7045   -1.6221422   -416.90682    8.6484741    7.4897932    7.0614365    457.40655 
  408000    365.39025   -213.54988   -179.78595   -213.54988    29.315083    1910.9545            0            0   -2153.8195   -1.6295252   -3167.3975     8.635393    7.4784647    7.0507559    455.33416 
  408500    259.36799   -209.53258   -185.56565   -209.53258     23.00943    1921.4674            0            0   -2154.0094   -1.5278452   -7450.8169    8.8228591     7.640815     7.203821    485.63719 
  409000    237.24654   -200.65452   -178.73173   -200.65452    25.879845     1927.157            0            0   -2153.6914   -1.5476754   -3563.0739    8.7850149    7.6080409    7.1729214    479.41477 
  409500    374.89218   -200.83102   -166.18906   -200.83102    25.848154    1926.4217            0            0   -2153.1008   -1.5873839   -3641.8211     8.711143    7.5440661    7.1126054    467.42221 
  410000    240.91684      -216.96   -194.69805      -216.96    32.340611    1905.0161            0            0   -2154.3167   -1.6754055   -2473.2582    8.5558367    7.4095669    6.9857985    442.86501 
  410500    282.63266   -210.01292   -183.89622   -210.01292    18.437977    1925.5735            0            0   -2154.0244   -1.5748418   -9131.7901    8.7342071    7.5640401    7.1314371    471.14476 
  411000     387.1994   -196.76301    -160.9838   -196.76301    30.405833    1926.4409            0            0   -2153.6098   -1.4979173   -372.06575    8.8812315    7.6913669    7.2514818    495.34009 
  411500    316.81617   -199.96603   -170.69059   -199.96603    33.075937    1920.7305            0            0   -2153.7724   -1.5898639    728.61836    8.7066111    7.5401413    7.1089051    466.69307 
  412000    377.04858   -204.72414   -169.88292   -204.72414    38.240263    1910.5708            0            0   -2153.5352   -1.7151886    5174.0968    8.4891687    7.3518308    6.9313645    432.59292 
  412500    334.60227   -207.96952   -177.05056   -207.96952    25.390993    1920.8195            0            0     -2154.18   -1.6739826   -3193.4295    8.5582602    7.4116657    6.9877773    443.24144 
  413000    370.21314   -224.63592   -190.42633   -224.63592    46.323838    1882.9822            0            0   -2153.9419   -1.5487859    341.60242    8.7829148    7.6062222    7.1712067    479.07104 
  413500    227.96392   -203.82493    -182.7599   -203.82493    25.734435     1924.182            0            0   -2153.7414   -1.5449758   -4925.3161    8.7901288    7.6124697    7.1770968    480.25248 
  414000    209.38824   -211.43821   -192.08967   -211.43821    53.595717    1888.8765            0            0   -2153.9104   -1.5410181    5571.3304    8.7976473    7.6189809    7.1832357    481.48588 
  414500    257.73815   -208.81652    -185.0002   -208.81652    26.191413    1918.7884            0            0   -2153.7963    -1.469241   -5954.3348    8.9386402    7.7410843    7.2983557    505.00802 
  415000    351.36301    -212.2876   -179.81986    -212.2876    31.673036    1909.3927            0            0   -2153.3534   -1.4712255   -3980.9922    8.9346193    7.7376021    7.2950726    504.32682 
  415500    300.78047   -212.37601   -184.58236   -212.37601    38.138541    1903.2229            0            0   -2153.7374   -1.7145314    3298.5952    8.4902533    7.3527701      6.93225    432.75874 
  416000    334.06292   -208.04178   -177.17266   -208.04178    36.947509    1908.9686            0            0   -2153.9579   -1.6630514    2818.1989    8.5769704    7.4278692    7.0030541    446.15487 
  416500    319.63986   -210.74199   -181.20563   -210.74199    44.569419    1898.3801            0            0   -2153.6915   -1.5393167    2852.3267    8.8008875     7.621787    7.1858813    482.01807 
  417000    322.34226   -206.15535   -176.36928   -206.15535    36.780754    1910.8604            0            0   -2153.7965   -1.6877329    2033.4495    8.5349549    7.3914828    6.9687486    439.63028 
  417500    301.14561   -210.95196   -183.12456   -210.95196       30.917    1912.0319            0            0   -2153.9009   -1.4905459   -5215.4539    8.8958478     7.704025    7.2634159    497.78974 
  418000    323.79387   -208.12184   -178.20163   -208.12184    33.046134    1912.4836            0            0   -2153.6516   -1.6360056   -833.67888     8.623976    7.4685772    7.0414339    453.53052 
  418500    225.79206   -205.44471   -184.58037   -205.44471    29.297789    1919.3958            0            0   -2154.1383   -1.5077535   -4254.7417    8.8618763    7.6746048    7.2356783     492.1086 
  419000    216.13216   -216.12937   -196.15765   -216.12937    38.687146    1898.8631            0            0   -2153.6796   -1.5274153   -2580.5258    8.8236869    7.6415318    7.2044969    485.77389 
  419500    343.31302   -206.21333   -174.48945   -206.21333    31.061313    1915.9239            0            0   -2153.1986   -1.4516431   -3883.5997    8.9746154    7.7722397    7.3277292    511.13008 
  420000    383.21343   -206.68472   -171.27384   -206.68472    40.471865    1906.6689            0            0   -2153.8255    -1.512662    1470.3291    8.8522804    7.6662946    7.2278434    490.51173 
  420500    255.12875   -216.55992   -192.98472   -216.55992    18.899494     1918.438            0            0   -2153.8974   -1.4021242   -11090.958    9.0790478    7.8626808    7.4129978     529.1817 
  421000    302.88706   -217.89916   -189.91085   -217.89916    33.534217    1902.2106            0            0    -2153.644   -1.4753416   -3766.1298    8.9263025    7.7303995     7.288282    502.91977 
  421500    337.37678   -218.57743   -187.40209   -218.57743    45.295799    1889.9037            0            0   -2153.7769    -1.527923    1679.6846    8.8227094    7.6406854    7.2036988    485.61248 
  422000    398.87546   -215.26892   -178.41079   -215.26892    39.775931    1898.6575            0            0   -2153.7023   -1.4552307   -2016.9306    8.9672343    7.7658475    7.3217027       509.87 
  422500    281.92847   -217.55419   -191.50256   -217.55419    40.627346    1895.7014            0            0    -2153.883   -1.4906694   -938.34924    8.8956022    7.7038123    7.2632154    497.74851 
  423000    286.15279   -217.00242   -190.56044   -217.00242    37.445472    1898.6948            0            0   -2153.1427   -1.3734255   -4761.9103      9.14185     7.917069    7.4642755    540.23931 
  423500    276.08813   -214.82766   -189.31571   -214.82766    48.913147    1889.5161            0            0   -2153.2569    -1.442853    2486.5662    8.9928034    7.7879909    7.3425797    514.24396 
  424000    259.20737   -208.48761   -184.53553   -208.48761    33.741841    1911.0903            0            0   -2153.3198   -1.3864137   -3240.1838    9.1132128    7.8922685    7.4408934    535.17824 
  424500    284.88003   -204.46501   -178.14064   -204.46501    56.868927    1892.1682            0            0   -2153.5022   -1.5586747    10512.158    8.7643014    7.5901025    7.1560089    476.03164 
  425000    243.97707   -209.40359   -186.85887   -209.40359    32.770043     1911.388            0            0   -2153.5616   -1.4815079   -3460.8195     8.913901    7.7196595    7.2781563    500.82653 
  425500    313.95308   -217.98954   -188.97867   -217.98954    43.814512    1891.9076            0            0   -2153.7116   -1.5044872    1217.8555    8.8682848    7.6801548    7.2409109      493.177 
  426000    318.12508   -209.75606   -180.35968   -209.75606    48.337306    1895.5936            0            0    -2153.687   -1.5041612    3860.9164    8.8689255    7.6807096     7.241434    493.28389 
  426500    287.22778   -213.79579   -187.25447   -213.79579     45.35806    1894.8869            0            0   -2154.0408   -1.4066541    144.26981    9.0692915    7.8542316    7.4050319    527.47757 
  427000    355.78931   -217.55202   -184.67527   -217.55202    40.910335    1895.7266            0            0    -2154.189   -1.3720574   -1967.2557    9.1448875    7.9196996    7.4667556    540.77799 
  427500    342.46952   -214.47024    -182.8243   -214.47024     45.70828    1893.5482            0            0   -2153.7267   -1.3497199   -317.68007    9.1950604    7.9631505    7.5077215    549.72776 
  428000    305.31252   -218.47635   -190.26391   -218.47635    45.880083    1889.6342            0            0   -2153.9906   -1.3859717   -1396.3608    9.1141817    7.8931076    7.4416845    535.34895 
  428500    327.06301   -221.83168   -191.60939   -221.83168    55.735947    1876.6177            0            0   -2154.1853    -1.559608    6466.7976    8.7625527    7.5885881    7.1545811    475.74676 
  429000    314.49354    -221.4717   -192.41089    -221.4717    49.362822    1883.3376            0            0   -2154.1721   -1.5736665    3436.9288     8.736381    7.5659228    7.1332121    471.49665 
  429500    222.16331   -213.56713   -193.03811   -213.56713     40.04396    1900.5625            0            0   -2154.1736   -1.5700971   -345.26737    8.7429962    7.5716517    7.1386133    472.56851 
  430000    265.15828   -211.79586   -187.29388   -211.79586    39.792767     1902.296            0            0   -2153.8847   -1.5538656    864.19432    8.7733336    7.5979246    7.1633837     477.5049 
  430500    327.79556   -213.88448   -183.59449   -213.88448    44.963755    1894.5911            0            0   -2153.4393   -1.5297853    1922.0296    8.8191279    7.6375836    7.2007745    485.02132 
  431000    318.84627   -222.35428   -192.89126   -222.35428    45.406498    1886.4041            0            0   -2154.1649   -1.5127625    708.03309    8.8520844    7.6661248    7.2276833    490.47914 
  431500    295.01732   -225.02915   -197.76804   -225.02915    40.827092    1888.5279            0            0   -2154.3841   -1.5420478   -1446.6882    8.7956887    7.6172848    7.1816365    481.16438 
  432000    320.11758   -216.04227   -186.46177   -216.04227    49.345889    1888.7444            0            0   -2154.1326   -1.6209464    5978.1118    8.6506002    7.4916345    7.0631725    457.74397 
  432500    309.05404   -208.90791   -180.34974   -208.90791    45.880453    1898.0903            0            0   -2152.8786   -1.5590635    4472.8469    8.7635727    7.5894715     7.155414    475.91292 
  433000    259.19023   -210.44556   -186.49506   -210.44556     37.34897    1906.3055            0            0      -2154.1   -1.4785833   -1418.0047    8.9197743    7.7247459    7.2829518    501.81716 
  433500     272.3174   -208.30384   -183.14032   -208.30384    28.514644    1916.7138            0            0   -2153.5323   -1.4659789   -5217.1545    8.9452652    7.7468217     7.303765    506.13174 
  434000    304.68837   -211.08589   -182.93112   -211.08589    32.839245    1910.0244            0            0   -2153.9496   -1.6478506   -990.15542    8.6032628    7.4506391    7.0245217    450.27048 
  434500    342.89708   -212.59417   -180.90872   -212.59417    46.819228    1894.5422            0            0   -2153.9556   -1.6273592    6010.1899    8.6392225    7.4817811    7.0538826     455.9402 
  435000    269.37317   -206.76712   -181.87567   -206.76712    36.438807    1910.5027            0            0   -2153.7086   -1.4573831   -1219.1913    8.9628175    7.7620224    7.3180964    509.11697 
  435500     318.8169   -199.06956   -169.60925   -199.06956    26.005972    1928.6808            0            0   -2153.7563   -1.6062507   -2029.9753    8.6769019    7.5144124    7.0846477    461.93192 
  436000    247.85375   -211.59365   -188.69069   -211.59365    35.473191    1906.4094            0            0   -2153.4762   -1.5827227   -1387.1786    8.7196862    7.5514647    7.1195808    468.79878 
  436500    313.03289   -214.61172   -185.68588   -214.61172    43.511085    1895.8694            0            0   -2153.9922   -1.6819746    3769.6238    8.5446837    7.3999081    6.9766921    441.13537 
  437000    330.16156   -206.14063   -175.63201   -206.14063    31.817898    1915.7316            0            0   -2153.6902   -1.5506634   -1868.6111    8.7793687    7.6031512    7.1683113      478.491 
  437500     294.6243    -212.4572   -185.23241    -212.4572    50.072455    1891.3775            0            0   -2153.9071   -1.6582492    6664.8643    8.5852417    7.4350324    7.0098076    447.44689 
  438000    239.15707   -213.02129   -190.92195   -213.02129    47.120764    1893.7627            0            0   -2153.9048   -1.5907469    4106.6217    8.7049999     7.538746    7.1075895    466.43402 
  438500    330.52643   -217.80658   -187.26425   -217.80658    44.431611    1891.9822            0            0   -2154.2204   -1.6538663    4383.7297    8.5928191    7.4415946    7.0159944    448.63268 
  439000    253.05699   -213.64925   -190.26549   -213.64925    44.350848    1895.7413            0            0   -2153.7414   -1.6339732    3644.2017      8.62755    7.4716724    7.0443521    454.09463 
  439500    276.46032   -198.37543   -172.82908   -198.37543    35.832153    1918.6919            0            0   -2152.8995   -1.6338654    2380.7168    8.6277398    7.4718368    7.0445071     454.1246 
  440000    304.55793    -197.4191   -169.27639    -197.4191    22.124135    1934.4448            0            0    -2153.988   -1.5148304   -4791.0572    8.8480546    7.6626349     7.224393     489.8096 
  440500    325.37819    -212.7656   -182.69899    -212.7656    37.995033    1903.2092            0            0   -2153.9698   -1.6313235    1065.7097    8.6322187    7.4757157    7.0481641    454.83221 
  441000    336.62733   -223.16006   -192.05398   -223.16006    39.481004    1891.2916            0            0   -2153.9327   -1.7023516   -74.562902    8.5104537    7.3702641    6.9487435    435.85501 
  441500    318.95477   -219.11342   -189.64037   -219.11342    28.859221    1905.9561            0            0   -2153.9288   -1.6141236   -4908.5999    8.6627717    7.5021753    7.0731104    459.67884 
  442000    337.89368   -214.86469   -183.64158   -214.86469    28.824508    1908.8099            0            0   -2152.4991   -1.6057858   -3816.4624    8.6777392    7.5151375    7.0853313    462.06566 
  442500    230.03614   -213.13702    -191.8805   -213.13702    31.273193    1909.2174            0            0   -2153.6276   -1.5986322   -3623.0449    8.6906637    7.5263305    7.0958841    464.13331 
  443000    301.76611    -222.7983   -194.91357    -222.7983    40.579062    1890.6889            0            0   -2154.0663   -1.6643035    149.96101    8.5748189     7.426006    7.0012974    445.81922 
  443500    271.22433   -204.55849   -179.49597   -204.55849    27.234842    1921.7642            0            0   -2153.5576   -1.6201782   -2976.6449    8.6519673    7.4928184    7.0642887    457.96102 
  444000    308.69505   -215.56837   -187.04337   -215.56837    44.664851    1893.7772            0            0   -2154.0104   -1.6718851    3226.6877    8.5618376    7.4147638    6.9906982    443.79751 
  444500     320.9413   -216.59645   -186.93984   -216.59645    31.821264    1905.5286            0            0   -2153.9463    -1.523627   -4444.3847    8.8309938    7.6478598    7.2104629     486.9817 
  445000    318.82522   -210.99086   -181.52978   -210.99086    58.535819    1884.1624            0            0   -2153.6891   -1.5523348    9657.9207    8.7762167    7.6004215    7.1657377    477.97581 
  445500    241.11187   -211.08282   -188.80285   -211.08282    32.134605    1910.9567            0            0   -2154.1741   -1.5177062   -3686.0992    8.8424625     7.657792    7.2198271    488.88149 
  446000    225.00879   -199.49472   -178.70275   -199.49472    44.571401    1909.7816            0            0   -2153.8477   -1.5622097    5533.6758    8.7576857    7.5843732    7.1506072    474.95446 
  446500    259.51441   -205.01677   -181.03631   -205.01677    29.623948    1919.2563            0            0   -2153.8971   -1.6060166   -2704.5092    8.6773234    7.5147774    7.0849918    461.99924 
  447000    249.18602   -207.77962   -184.75356   -207.77962    36.141755    1910.0314            0            0   -2153.9528   -1.6173785    887.38587    8.6569566    7.4971393    7.0683624    458.75376 
  447500    309.84426   -217.55043   -188.91924   -217.55043    50.387478    1886.3436            0            0   -2154.2815   -1.6496666    6367.1816    8.6001047    7.4479041    7.0219431     449.7748 
  448000     310.1384   -187.59507    -158.9367   -187.59507    24.598101    1941.0281            0            0   -2153.2213   -1.5535586   -1301.8697    8.7739114    7.5984251    7.1638555    477.59926 
  448500    289.10991   -200.46636   -173.75112   -200.46636     20.89392    1932.0465            0            0   -2153.4068   -1.5362277   -6138.3937    8.8067825    7.6268922    7.1906945    482.98731 
  449000    268.05321    -206.5574   -181.78791    -206.5574    37.009227     1910.047            0            0   -2153.6136   -1.7019085    2455.3236    8.5111921    7.3709036    6.9493465    435.96848 
  449500    297.69153   -211.20518   -183.69696   -211.20518    52.288548     1890.504            0            0   -2153.9978   -1.7542787    10756.578    8.4256407    7.2968139    6.8794941    422.95358 
  450000    294.55001   -204.36088   -177.14295   -204.36088    33.672952     1915.204            0            0   -2153.2379   -1.7719835    3574.6171    8.3974851    7.2724305    6.8565052    418.72764 
  450500     289.9133   -201.79546   -175.00599   -201.79546    49.831891    1902.1316            0            0    -2153.759   -1.6760352    11954.335     8.554765    7.4086388    6.9849235    442.69861 
  451000    274.45922   -199.08979   -173.72836   -199.08979    35.247532    1919.9367            0            0    -2154.274   -1.7311117    4661.5928    8.4630602    7.3292202     6.910047    428.61385 
  451500     254.4009   -198.27684   -174.76889   -198.27684    19.453758    1935.8783            0            0   -2153.6089     -1.50115   -7530.7817    8.8748517    7.6858419    7.2462727    494.27338 
  452000    273.27991   -203.23798   -177.98552   -203.23798    51.733393    1898.6473            0            0   -2153.6187   -1.5097133    7168.1279      8.85804    7.6712825     7.232546    491.46978 
  452500    322.42605   -211.38907   -181.59525   -211.38907    33.732494    1909.0177            0            0   -2154.1392   -1.6971263     641.1804    8.5191789    7.3778204    6.9558676    437.19695 
  453000    359.41261   -200.58711   -167.37555   -200.58711    27.801464    1925.4592            0            0   -2153.8478   -1.4738331   -2970.2723    8.9293468     7.733036    7.2907677    503.43451 
  453500    285.53664   -212.76182   -186.37678   -212.76182    36.347961    1904.6932            0            0    -2153.803   -1.5419882   -257.23357     8.795802    7.6173828     7.181729    481.18296 
  454000    255.36496   -208.51739   -184.92037   -208.51739    37.021763    1908.5462            0            0   -2154.0854   -1.6025859    2014.0679     8.683511    7.5201361     7.090044    462.98827 
  454500    329.04845   -211.81353   -181.40778   -211.81353    38.014062    1904.1786            0            0   -2154.0062   -1.5865437     441.1898    8.7126804    7.5453974    7.1138606    467.66972 
  455000    351.96859   -212.39856   -179.87487   -212.39856    37.958368    1903.2906            0            0   -2153.6475   -1.6235947    1731.0001    8.6458943    7.4875591    7.0593301    456.99735 
  455500    296.34961   -213.23259   -185.84837   -213.23259    31.793856    1908.7551            0            0   -2153.7815   -1.6127924   -3417.0179    8.6651545    7.5042389     7.075056    460.05827 
  456000    240.42579   -204.26553   -182.04896   -204.26553    35.864449    1913.2063            0            0   -2153.3363   -1.4761224   -207.30742    8.9247284    7.7290363    7.2869968    502.65375 
  456500    250.21339   -206.60861   -183.48762   -206.60861    19.604352    1927.4481            0            0   -2153.6611   -1.4774136   -8095.6458    8.9221276     7.726784    7.2848733    502.21445 
  457000    335.58258   -205.02046   -174.01092   -205.02046    36.207837    1912.7097            0            0    -2153.938   -1.4611248   -308.46673    8.9551601    7.7553909    7.3118441    507.81319 
  457500    297.29438   -201.02516   -173.55364   -201.02516    37.020624    1915.9895            0            0   -2154.0353   -1.5292867    883.45934    8.8200862    7.6384136     7.201557    485.17945 
  458000    313.13234   -210.39328   -181.45825   -210.39328    39.445421    1903.9383            0            0    -2153.777   -1.5750089   -112.00526    8.7338982    7.5637726    7.1311848    471.09477 
  458500    352.99709   -200.25976   -167.64102   -200.25976    26.279949    1926.5426            0            0   -2153.0823   -1.5874721   -1922.7883    8.7109817    7.5439263    7.1124736    467.39623 
  459000    240.28901   -198.02735   -175.82342   -198.02735    31.308225     1924.216            0            0   -2153.5516   -1.6605048    1219.8931    8.5813527    7.4316644    7.0066322    446.83909 
  459500    337.74439    -209.7054   -178.49609    -209.7054    27.502547    1916.4299            0            0   -2153.6379   -1.6109485   -4513.3718    8.6684592    7.5071009    7.0777543    460.58484 
  460000    270.81936   -205.09504   -180.06995   -205.09504    33.162892    1915.5301            0            0    -2153.788   -1.5361194     -572.722    8.8069895    7.6270715    7.1908635    483.02136 
  460500    355.53467   -206.93872    -174.0855   -206.93872    48.720493    1897.8216            0            0   -2153.4808   -1.7345122    10002.033    8.4575261    7.3244276    6.9055284    427.77358 
  461000    346.42264   -203.19556   -171.18434   -203.19556     25.08661    1924.9735            0            0   -2153.2556   -1.5121106   -5178.9253    8.8533563    7.6672263    7.2287218     490.6906 
  461500     284.1215    -210.0972   -183.84292    -210.0972    20.867028     1922.792            0            0   -2153.7562    -1.611171   -6593.7672    8.6680601    7.5067552    7.0774284    460.52123 
  462000    343.26491    -218.6362   -186.91676    -218.6362    26.292729    1909.1357            0            0   -2154.0646   -1.7310309   -4175.3844    8.4631919    7.3293343    6.9101545    428.63386 
  462500    311.97741   -204.56754   -175.73923   -204.56754     45.96867    1903.6027            0            0   -2154.1389    -1.789937    9878.2807    8.3693143    7.2480339    6.8335039    414.52769 
  463000    278.44766   -204.91446   -179.18447   -204.91446    22.395082    1926.6466            0            0   -2153.9561   -1.5735687   -5845.8536     8.736562    7.5660795    7.1333598    471.52594 
  463500    359.48334   -199.32459   -166.10649   -199.32459    43.284126    1911.5718            0            0   -2154.1805   -1.7327481    8247.8255    8.4603953    7.3269124    6.9078711    428.20909 
  464000    349.10883   -207.32012   -175.06068   -207.32012    33.488954    1913.3316            0            0   -2154.1407   -1.6347039    617.13224    8.6262644    7.4705591    7.0433024    453.89166 
  464500    311.15674   -206.43658   -177.68411   -206.43658    26.471182    1921.2228            0            0   -2154.1305   -1.4738331   -4796.0974    8.9293469     7.733036    7.2907677    503.43452 
  465000    338.21483   -208.42647   -177.17369   -208.42647    38.561232    1907.1137            0            0   -2154.1014   -1.5679055    588.22144     8.747068     7.575178    7.1419379    473.22907 
  465500    327.74511   -198.26749   -167.98217   -198.26749    40.531136    1915.0914            0            0     -2153.89    -1.566731    4719.6518    8.7492532    7.5770705    7.1437222    473.58384 
  466000     362.6133   -211.15825   -177.65093   -211.15825    34.306329    1908.2169            0            0   -2153.6815   -1.5409433   -995.06159    8.7977896    7.6191042    7.1833519    481.50924 
  466500      293.492   -210.11519   -182.99503   -210.11519    41.084409     1902.336            0            0   -2153.5356   -1.5805684    1440.7749     8.723646     7.554894     7.122814    469.43775 
  467000    347.60626   -212.40999   -180.28939   -212.40999    43.958933    1896.9867            0            0   -2153.3556   -1.5399652    3118.5532    8.7996519     7.620717    7.1848725    481.81508 
  467500    259.87468   -208.19075     -184.177   -208.19075    22.476154    1923.1972            0            0   -2153.8642   -1.4333588   -7775.7184    9.0126151    7.8051483    7.3587558    517.65019 
  468000    289.14261    -191.3904   -164.67215    -191.3904    20.836663    1941.0504            0            0   -2153.2775   -1.3953026   -5574.6409    9.0938195    7.8754734    7.4250588    531.76886 
  468500    249.36012   -206.89571   -183.85356   -206.89571    48.643034     1898.233            0            0   -2153.7718   -1.5252688    6029.6284    8.8278241    7.6451148    7.2078749    486.45751 
  469000    422.39978   -203.93627   -164.90437   -203.93627    48.417763    1901.4528            0            0   -2153.8069   -1.4964615    5448.0906    8.8841104    7.6938602    7.2538324    495.82196 
  469500    317.13208   -204.40385   -175.09923   -204.40385    35.959715    1913.0209            0            0   -2153.3845   -1.5344111    -112.2749    8.8102564    7.6299008     7.193531     483.5591 
  470000    377.97635   -210.58108   -175.65413   -210.58108    37.356131     1905.777            0            0   -2153.7143   -1.5000431   -658.12382     8.877034    7.6877317    7.2480545    494.63808 
  470500    264.21179   -196.97936   -172.56484   -196.97936    39.996505    1916.4876            0            0   -2153.4635   -1.6821204    5522.0541    8.5444367    7.3996942    6.9764905    441.09711 
  471000    379.00419   -202.11381   -167.09188   -202.11381    33.862419    1917.4561            0            0   -2153.4323   -1.5892829    1717.3793     8.707672    7.5410601    7.1097713    466.86369 
  471500    260.09361   -201.16332   -177.12934   -201.16332       53.446    1899.0501            0            0   -2153.6594   -1.6603082     10297.06    8.5816913    7.4319577    7.0069087      446.892 
  472000    307.77939   -201.52276   -173.08237   -201.52276    25.728378     1926.308            0            0   -2153.5591   -1.6040218   -2850.5071    8.6809191    7.5178914    7.0879277     462.5738 
  472500    268.11958   -198.31703   -173.54141   -198.31703    36.924878    1918.6718            0            0   -2153.9137   -1.6700198    4614.1938    8.5650242    7.4175235    6.9933001    444.29322 
  473000    230.05919   -202.88187   -181.62323   -202.88187    33.559241    1917.5115            0            0   -2153.9526   -1.5323014     -1424.93    8.8142981    7.6334009     7.196831    484.22489 
  473500    246.20463   -205.58711   -182.83654   -205.58711     28.77355    1919.3874            0            0   -2153.7481   -1.5734181   -2805.0281    8.7368406    7.5663208    7.1335873    471.57106 
  474000    357.36417   -214.17972   -181.15745   -214.17972    43.569092    1895.9417            0            0   -2153.6905   -1.5851953    3055.5893    8.7151501    7.5475363    7.1158771    468.06754 
  474500    292.44131   -203.13296   -176.10989   -203.13296    29.345867     1921.298            0            0   -2153.7768   -1.4307874   -4408.1024     9.018011    7.8098214    7.3631616    518.58051 
  475000    340.01088   -204.11446   -172.69572   -204.11446    36.267151    1913.3192            0            0   -2153.7009   -1.3012176   -2218.0618    9.3079167    8.0608868    7.5998681    570.21858 
  475500    222.32527   -202.35534   -181.81135   -202.35534     46.63736    1905.1685            0            0   -2154.1612   -1.6554464    7349.0587    8.5900843    7.4392262    7.0137615    448.20447 
  476000    256.30952   -208.58966   -184.90535   -208.58966    36.241574    1908.9894            0            0   -2153.8207   -1.5457453   -840.34922    8.7886699    7.6112063    7.1759057    480.01341 
  476500    264.00837    -202.1023   -177.70657    -202.1023    29.928272    1921.7514            0            0    -2153.782   -1.4833167   -3740.5123    8.9102762    7.7165203    7.2751966     500.2158 
  477000    324.30459   -205.96211   -175.99471   -205.96211    45.756957    1902.1378            0            0   -2153.8569   -1.5556209     5316.702    8.7700327     7.595066    7.1606885    476.96613 
  477500    253.48008   -199.19437   -175.77151   -199.19437    26.173146    1928.4163            0            0   -2153.7838   -1.6404612   -2057.1805     8.616161    7.4618093    7.0350531    452.29869 
  478000     272.1084   -207.58764   -182.44343   -207.58764    43.540278    1902.3832            0            0   -2153.5111   -1.5857084    4590.1814    8.7142101    7.5467222    7.1151096    467.91609 
  478500    355.83341     -211.338   -178.45718     -211.338    32.521794    1910.0611            0            0   -2153.9209   -1.5725014   -2496.8857     8.738538    7.5677908    7.1349733    471.84597 
  479000    278.24269   -203.81842   -178.10737   -203.81842    26.908907    1922.9768            0            0   -2153.7041   -1.5152901    -3582.389    8.8471597    7.6618599    7.2236623    489.66099 
  479500    251.19779   -201.38902   -178.17706   -201.38902    49.475785    1902.9709            0            0   -2153.8357   -1.4333781    4261.3421    9.0125746    7.8051133    7.3587228    517.64322 
  480000    295.79793   -206.35062   -179.01738   -206.35062    43.476761    1904.1961            0            0   -2154.0235     -1.60286    3457.2567    8.6830159    7.5197073    7.0896398    462.90909 
  480500    336.98117   -192.89063   -161.75185   -192.89063    22.903334    1938.2436            0            0   -2154.0376    -1.529345   -3412.7607     8.819974    7.6383164    7.2014653    485.16094 
  481000    346.52858   -213.72767   -181.70665   -213.72767    29.285557    1910.6402            0            0   -2153.6534   -1.5660407   -4957.5205    8.7505386    7.5781836    7.1447716    473.79258 
  481500    316.94576   -204.78762   -175.50021   -204.78762    33.858706    1915.2382            0            0   -2153.8845    -1.573015    131.00572     8.737587    7.5669672    7.1341967    471.69193 
  482000    317.94479   -194.87214   -165.49242   -194.87214    28.819638    1930.1599            0            0   -2153.8517   -1.4489471   -462.42348    8.9801782    7.7770572    7.3322713    512.08114 
  482500    355.24941   -192.15558   -159.32872   -192.15558    28.489661    1932.8318            0            0    -2153.477   -1.5291718   -667.09956    8.8203071    7.6386049    7.2017373     485.2159 
  483000     325.4933   -209.12631   -179.04907   -209.12631    28.352949    1916.1305            0            0   -2153.6098   -1.3977994   -5248.1571    9.0884017    7.8707814    7.4206352    530.81899 
  483500    324.14424   -213.54496   -183.59238   -213.54496    21.332675    1919.2325            0            0   -2154.1101   -1.3884495   -9626.7788    9.1087566    7.8884093    7.4372549    534.39354 
  484000    304.72752   -202.43242   -174.27404   -202.43242    41.307972    1910.0697            0            0   -2153.8101    -1.484456    1448.1471    8.9079961    7.7145457    7.2733349    499.83189 
  484500    265.00133   -203.23931   -178.75184   -203.23931    35.095778    1915.2605            0            0   -2153.5956   -1.4574317   -808.22211     8.962718    7.7619362    7.3180151        509.1 
  485000    327.18553    -207.3393   -177.10568    -207.3393    36.359045    1909.9319            0            0   -2153.6302   -1.4659261   -408.54644    8.9453727    7.7469147    7.3038527    506.14998 
  485500    289.29821   -208.00529   -181.27266   -208.00529    36.941746    1908.4356            0            0   -2153.3826    -1.523636   -2077.5882    8.8309764    7.6478447    7.2104487    486.97883 
  486000    347.59314   -209.19781   -177.07843   -209.19781    33.051978    1911.3636            0            0   -2153.6134   -1.5475688   -1627.5591    8.7852166    7.6082156     7.173086    479.44779 
  486500     310.6282   -214.07395   -185.37031   -214.07395     40.84355    1899.2444            0            0   -2154.1619    -1.634834    2115.6226    8.6260355    7.4703609    7.0431155    453.85554 
  487000     348.0431     -211.013   -178.85204     -211.013    33.238759    1909.5775            0            0   -2153.8293   -1.6479276   -739.32133    8.6031287     7.450523    7.0244122    450.24943 
  487500    272.94936   -213.27237   -188.05045   -213.27237    37.746682    1902.9058            0            0   -2153.9249   -1.6630154    1613.1754    8.5770321    7.4279227    7.0031045    446.16451 
  488000    221.81677   -202.10994   -181.61294   -202.10994    44.922942    1907.0885            0            0   -2154.1214   -1.5288041    3578.0986    8.8210141    7.6392171    7.2023145    485.33259 
  488500    337.39371   -214.72008   -183.54318   -214.72008    31.994967     1907.167            0            0    -2153.882   -1.6393027   -1658.5634    8.6181903    7.4635667    7.0367099    452.61834 
  489000    283.67565   -208.81795   -182.60487   -208.81795     27.97129    1916.7934            0            0   -2153.5826    -1.600049   -3634.7988    8.6880979    7.5241084    7.0937892    463.72235 
  489500    378.14328   -207.79815   -172.85578   -207.79815    27.897459    1917.7443            0            0   -2153.4399    -1.518522   -4537.8002    8.8408787    7.6564204    7.2185339    488.61884 
  490000    229.47258   -197.19102   -175.98658   -197.19102    36.339766    1919.9439            0            0   -2153.4747    -1.714903    4554.4186      8.48964     7.352239    6.9317493    432.66497 
  490500    378.95985   -202.40454   -167.38671   -202.40454    37.521446    1913.4373            0            0   -2153.3633   -1.4998297    868.15475    8.8774549    7.6880963    7.2483982    494.70846 
  491000    291.84527   -205.43876   -178.47077   -205.43876    21.446038    1927.3164            0            0   -2154.2012   -1.5893174   -6150.2423     8.707609    7.5410055    7.1097199    466.85355 
  491500    334.39671   -210.99222   -180.09226   -210.99222     28.76526    1914.3882            0            0   -2154.1456   -1.6265201   -3266.5739    8.6407078    7.4830674    7.0550954    456.17541 
  492000    287.18895   -211.44986   -184.91213   -211.44986    42.290397    1899.3583            0            0   -2153.0986   -1.5575577    2302.0267     8.766396    7.5919165    7.1577192    476.37303 
  492500    304.08071   -210.45866   -182.36005   -210.45866    45.758488    1897.7524            0            0   -2153.9696   -1.5759229     4148.044    8.7322095    7.5623101     7.129806    470.82156 
  493000    289.28294   -207.20907   -180.47784   -207.20907    36.968037    1909.4928            0            0   -2153.6699   -1.5192286   -360.95159    8.8395078    7.6552332    7.2174146    488.39157 
  493500    265.45044   -219.24072   -194.71174   -219.24072    40.661652     1894.271            0            0   -2154.1734   -1.6335463    179.05829    8.6283016    7.4723233    7.0449657    454.21331 
  494000    358.59893   -208.93842   -175.80205   -208.93842    58.375988    1886.8276            0            0    -2154.142   -1.5383624    8574.7679     8.802707    7.6233627    7.1873669    482.31708 
  494500    308.65073   -206.24018   -177.71928   -206.24018    39.179385    1908.0309            0            0   -2153.4504   -1.5866454    2625.1199    8.7124942    7.5452363    7.1137086    467.63975 
  495000    301.76026   -207.03849    -179.1543   -207.03849    28.238634    1918.5255            0            0   -2153.8026   -1.5206545   -4931.7016    8.8367441    7.6528397     7.215158    487.93362 
  495500      253.079   -205.63936   -182.25357   -205.63936    42.775846    1905.6255            0            0   -2154.0407   -1.5848773    3677.5719    8.7157329     7.548041     7.116353    468.16145 
  496000    311.83515   -209.12266    -180.3075   -209.12266    23.702206    1921.2974            0            0   -2154.1223   -1.5185124   -6948.6231    8.8408973    7.6564365    7.2185491    488.62192 
  496500    250.36501   -203.64092   -180.50591   -203.64092    30.093639    1919.9214            0            0   -2153.6559   -1.4227773   -3444.6482    9.0349029    7.8244502    7.3769538    521.50008 
  497000    313.78055   -208.10517   -179.11024   -208.10517    39.364891    1906.3068            0            0   -2153.7769   -1.5095199    159.53796    8.8584184    7.6716102     7.232855    491.53276 
  497500    317.94267   -218.87376   -189.49423   -218.87376    38.456663    1896.7278            0            0   -2154.0583   -1.5311926   -729.86624    8.8164251     7.635243    7.1985677    484.57552 
  498000    286.45624   -223.32414   -196.85412   -223.32414    46.542389    1884.2784            0            0   -2154.1449   -1.5848544    1596.9561     8.715775    7.5480774    7.1163873    468.16822 
  498500    281.40774   -217.61975   -191.61624   -217.61975    45.015101    1891.1321            0            0   -2153.7669   -1.5771831    903.20613    8.7298831    7.5602954    7.1279065    470.44536 
  499000    241.58148   -212.09048   -189.76712   -212.09048    38.702801    1902.2491            0            0   -2153.0424   -1.5703378   -262.16984    8.7425495    7.5712649    7.1382486    472.49609 
  499500    271.10684    -212.0305   -186.97884    -212.0305    32.771492    1908.6573            0            0   -2153.4593   -1.4874918    -3874.046     8.901932    7.7092941    7.2683836    498.81181 
  500000    377.01417   -206.69666   -171.85863   -206.69666    34.266809     1912.518            0            0   -2153.4815   -1.4620712   -1905.7866    8.9532276    7.7537173    7.3102662    507.48449 
  500500    248.26375   -199.59177   -176.65093   -199.59177    29.159069    1924.9703            0            0   -2153.7211   -1.6115034   -1614.6939    8.6674641    7.5062391    7.0769418    460.42624 
  501000    288.08594   -210.68113   -184.06052   -210.68113    30.586381    1912.7296            0            0   -2153.9972   -1.6309163   -2086.9052    8.6329371    7.4763378    7.0487506    454.94578 
  501500    268.07296   -207.66268   -182.89137   -207.66268    33.286941      1912.57            0            0   -2153.5197   -1.5981275   -616.98611    8.6915785    7.5271227     7.096631    464.27989 
  502000    325.67934   -212.57483    -182.4804   -212.57483     33.50144    1907.9754            0            0   -2154.0517   -1.6207263   -1044.2397    8.6509919    7.4919737    7.0634923    457.80616 
  502500    264.47148   -207.05264   -182.61412   -207.05264    34.087218    1913.0159            0            0   -2154.1558    -1.611273    -524.0096    8.6678773    7.5065969    7.0772791    460.49208 
  503000    341.78375   -194.63378   -163.05121   -194.63378    28.237867     1929.902            0            0   -2152.7737   -1.4904511   -2438.8598    8.8960365    7.7041884      7.26357    497.82142 
  503500    303.85211   -214.77718   -186.69969   -214.77718    45.366945    1894.0484            0            0   -2154.1925   -1.6998611    4762.9627    8.5146079    7.3738618    6.9521354    436.49359 
  504000    323.43184   -209.17569   -179.28893   -209.17569    28.063161    1916.8145            0            0   -2154.0534   -1.6035357   -3753.5759    8.6817962     7.518651    7.0886438    462.71403 
  504500    268.19968   -204.80369   -180.02067   -204.80369    27.890306    1921.2522            0            0   -2153.9462   -1.5823812   -3113.9725    8.7203134    7.5520078    7.1200929    468.89995 
  505000    323.97111   -207.51729    -177.5807   -207.51729    34.298539     1911.899            0            0   -2153.7149   -1.6508349   -286.32431    8.5980755    7.4461468    7.0202863     449.4565 
  505500    260.22116    -207.4671   -183.42133    -207.4671    33.086999    1912.9274            0            0   -2153.4815   -1.6112297   -916.92182    8.6679549    7.5066641    7.0773425    460.50446 
  506000    309.26101   -195.75785   -167.18055   -195.75785    33.606735     1923.981            0            0   -2153.3456   -1.5051079    -215.0901    8.8670655    7.6790988    7.2399153     492.9736 
  506500    307.33972   -207.25182   -178.85205   -207.25182    32.939794     1913.623            0            0   -2153.8146   -1.3658845   -3478.5989    9.1586431    7.9316123     7.477987    543.22196 
  507000    263.76544    -214.8921   -190.51883    -214.8921    34.267405    1904.8436            0            0   -2154.0031   -1.5675205   -2958.7605     8.747784    7.5757981    7.1425225    473.34529 
  507500    257.18818   -206.98322   -183.21772   -206.98322    39.429135    1907.5479            0            0   -2153.9602   -1.5960586    1508.4271    8.6953323    7.5303736     7.099696    464.88171 
  508000    283.90142   -212.64714    -186.4132   -212.64714    31.238298    1910.0909            0            0   -2153.9763   -1.6330922   -1975.8121    8.6291013    7.4730159    7.0456187    454.33962 
  508500    215.14289   -193.61913   -173.73882   -193.61913    49.433528    1910.5164            0            0   -2153.5691   -1.5696223      9823.37    8.7438777    7.5724151    7.1393331    472.71146 
  509000    231.15802   -206.14837   -184.78819   -206.14837    49.742371    1898.2611            0            0   -2154.1519   -1.6137807    8027.8181    8.6633852    7.5027066    7.0736113    459.77651 
  509500    377.56289    -213.7616   -178.87286    -213.7616    35.750327    1904.2984            0            0   -2153.8104   -1.5404041   -1563.9233    8.7988161    7.6199931      7.18419     481.6778 
  510000    359.75121   -206.48557   -173.24272   -206.48557    28.258586    1919.1407            0            0   -2153.8849    -1.544052   -3274.6186    8.7918814    7.6139875    7.1785279    480.53982 
  510500    294.32458   -214.26795   -187.07085   -214.26795    30.385602    1909.1559            0            0   -2153.8095   -1.5515687   -3685.6435    8.7776609    7.6016722    7.1669169    478.21181 
  511000    351.93524   -211.39026   -178.86964   -211.39026    38.156584    1903.7607            0            0   -2153.3075   -1.4594917   -1464.2949    8.9584991    7.7582826    7.3145704    508.38142 
  511500    221.01301   -206.11185   -185.68911   -206.11185     31.06951    1916.2039            0            0   -2153.3852   -1.4295553   -3466.7966    9.0206011    7.8120644    7.3652764    519.02747 
  512000    254.66195   -212.32824   -188.79618   -212.32824    39.119577    1902.1697            0            0   -2153.6175    -1.440797   -2182.8514     8.997079    7.7916937    7.3460707     514.9778 
  512500     283.0723   -210.35471   -184.19738   -210.35471    49.200216    1894.1946            0            0   -2153.7495   -1.4853361    3799.1141    8.9062363    7.7130217    7.2718981    499.53573 
  513000    292.43511    -209.9389   -182.91641    -209.9389    46.291987    1897.6931            0            0    -2153.924   -1.4913468    2978.3869    8.8942552    7.7026458    7.2621156    497.52243 
  513500    315.34054   -211.47583   -182.33675   -211.47583    50.200793    1892.2335            0            0   -2153.9102   -1.4821627    4233.0896    8.9125882    7.7185226    7.2770844    500.60529 
  514000    312.58197   -211.66283   -182.77866   -211.66283     43.00135    1898.6844            0            0   -2153.3486   -1.4576688    1505.1617     8.962232    7.7615154    7.3176183     509.0172 
  514500    359.25475   -208.05879   -174.86181   -208.05879    42.930569    1902.6666            0            0   -2153.6559   -1.4526465    932.35668    8.9725486    7.7704498    7.3260418    510.77704 
  515000     322.3177   -205.10322   -175.31942   -205.10322    39.397811    1909.0651            0            0   -2153.5661    -1.531622    1337.4649    8.8156011    7.6345293    7.1978949    484.43967 
  515500    295.32919   -211.39114   -184.10121   -211.39114    31.147533    1911.3746            0            0   -2153.9132   -1.4943449   -5185.1768     8.888303     7.697491    7.2572557    496.52425 
  516000    275.69089   -213.13668   -187.66143   -213.13668    49.959944    1890.3092            0            0   -2153.4058   -1.6897213    7218.5732    8.5316056    7.3885822     6.966014    439.11293 
  516500    295.59206   -214.65598   -187.34176   -214.65598    63.188155     1875.707            0            0   -2153.5511   -1.6314413    10817.154    8.6320109    7.4755357    7.0479944    454.79936 
  517000    282.32264   -202.58808   -176.50002   -202.58808    32.268472    1918.6883            0            0   -2153.5449   -1.4979445   -2578.1251    8.8811776    7.6913202    7.2514377    495.33107 
  517500    313.03027   -216.28015   -187.35455   -216.28015    28.173064    1909.5243            0            0   -2153.9775   -1.7027329   -2865.6475    8.5098184    7.3697139    6.9482248    435.75741 
  518000    287.39339   -195.38801   -168.83139   -195.38801    27.596402    1930.8408            0            0   -2153.8252   -1.5464173   -1829.9821    8.7873966    7.6101036    7.1748661    479.80481 
  518500    358.58612   -207.67991   -174.54472   -207.67991    47.638712     1898.262            0            0   -2153.5806   -1.7096072    7942.3424    8.4983971    7.3598228    6.9388994    434.00523 
  519000    283.34808   -220.30154   -194.11873   -220.30154    29.198362    1904.5103            0            0   -2154.0102   -1.6053573   -5137.2305    8.6785113    7.5158062    7.0859617      462.189 
  519500    281.98376   -206.06409   -180.00735   -206.06409    32.476663    1915.0297            0            0   -2153.5704   -1.5769235   -1345.3996    8.7303622    7.5607103    7.1282977    470.52282 
  520000    323.41037   -200.27044   -170.38567   -200.27044    29.884572    1923.5299            0            0   -2153.6849   -1.7012358   -27.768565    8.5123138     7.371875    6.9502623    436.14086 
  520500    236.46002   -202.78351   -180.93339   -202.78351    29.774172    1921.4503            0            0    -2154.008   -1.6127584   -1397.0297    8.6652153    7.5042915    7.0751056    460.06795 
  521000    286.59805   -201.22162    -174.7385   -201.22162    32.644397    1919.9489            0            0   -2153.8149    -1.557572    717.11712    8.7663691    7.5918932    7.1576972    476.36865 
  521500    293.56769   -208.21934   -181.09218   -208.21934    37.373862    1908.3316            0            0   -2153.9248   -1.5737496    193.97178    8.7362272    7.5657896    7.1330865    471.47174 
  522000     277.2102   -204.74336   -179.12772   -204.74336    25.500967    1923.4237            0            0   -2153.6681   -1.6047087   -3160.4501    8.6796802    7.5168185    7.0869162    462.37579 
  522500    259.03966   -207.47264   -183.53605   -207.47264    52.891203    1893.7986            0            0   -2154.1624   -1.7446402    10521.944    8.4411283    7.3102267    6.8921397    425.29024 
  523000    406.48663   -209.68162   -172.12018   -209.68162    31.420743    1913.1498            0            0   -2154.2522   -1.6778075    1070.4736    8.5517519    7.4060294    6.9824633      442.231 
  523500    330.68473   -210.46913   -179.91217   -210.46913    37.920266     1905.419            0            0   -2153.8084     -1.53979    1123.9355    8.7999858    7.6210061     7.185145    481.86992 
  524000     265.7744   -205.46228   -180.90337   -205.46228    28.517713    1919.9869            0            0   -2153.9669   -1.5855163   -2213.4163     8.714562     7.547027    7.1153969    467.97279 
  524500    319.49393   -201.00293   -171.48006   -201.00293    28.659727    1923.8017            0            0   -2153.4644   -1.5664642   -1662.5381    8.7497499    7.5775006    7.1441277    473.66449 
  525000    327.29559   -205.41096   -175.16717   -205.41096    36.752902    1911.8561            0            0   -2154.0199   -1.5746075    235.39118    8.7346403    7.5644153    7.1317907    471.21486 
  525500     237.9264   -213.01891   -191.03329   -213.01891    24.908693    1915.4334            0            0    -2153.361   -1.6017423   -5920.8312    8.6850352    7.5214561    7.0912885    463.23212 
  526000    244.92032    -216.7859   -194.15401    -216.7859    36.060635    1900.8822            0            0   -2153.7287   -1.6540569   -539.16809    8.5924889    7.4413087    7.0157249    448.58097 
  526500    474.48203   -212.97261   -169.12805   -212.97261    23.796283    1917.2838            0            0   -2154.0527   -1.6253995   -4431.6562    8.6426931    7.4847867    7.0567164    456.48991 
  527000    340.29401    -205.3682   -173.92329    -205.3682    35.627626    1912.5873            0            0   -2153.5832   -1.5578857    701.04432    8.7657807    7.5913837    7.1572168    476.27273 
  527500    361.13463   -200.41985   -167.04916   -200.41985    59.589702     1893.633            0            0   -2153.6426   -1.5899065    12147.174    8.7065333     7.540074    7.1088416    466.68056 
  528000    323.04694   -205.05207   -175.20088   -205.05207    38.498662    1909.9891            0            0   -2153.5398   -1.5963628    2041.6758    8.6947801    7.5298954    7.0992451    464.79314 
  528500    241.58957   -198.30173   -175.97762   -198.30173    26.976968    1928.2409            0            0   -2153.5196   -1.4579034   -4113.1982    8.9617511    7.7610989    7.3172256    508.93526 
  529000    303.67586   -199.34732   -171.28612   -199.34732    24.717989    1929.6973            0            0   -2153.7626   -1.4361141   -5234.4146    9.0068475    7.8001535    7.3540466    516.65703 
  529500     339.3552   -212.01168   -180.65352   -212.01168    33.623243    1907.8948            0            0   -2153.5297   -1.4630803   -2939.1805    8.9511687    7.7519343    7.3085852    507.13448 
  530000    266.08725   -206.21719   -181.62937   -206.21719    36.051468    1911.0781            0            0   -2153.3468   -1.5254532   -624.67168    8.8274683    7.6448066    7.2075844     486.3987 
  530500    304.32246   -216.69233   -188.57138   -216.69233    38.754832    1898.0421            0            0   -2153.4893   -1.4291158   -2946.9829    9.0215256    7.8128651    7.3660312    519.18707 
  531000    285.66314   -210.68799   -184.29126   -210.68799    44.290486    1898.5113            0            0   -2153.4898   -1.5548771    2722.0931    8.7714307    7.5962767      7.16183    477.19427 
  531500    270.20487    -218.0734   -193.10509    -218.0734    41.743007    1894.0864            0            0   -2153.9028   -1.4773253   -1784.6247    8.9223054    7.7269379    7.2850184    502.24447 
  532000    288.08068   -205.96664   -179.34651   -205.96664    33.013308    1914.5404            0            0   -2153.5203   -1.2836315   -4050.8737    9.3502311    8.0975322    7.6344176    578.03075 
  532500    232.46048   -209.82502   -188.34448   -209.82502    39.600553    1904.0698            0            0   -2153.4953   -1.5477918    2.0270434    8.7847946    7.6078502    7.1727415    479.37871 
  533000    262.89041   -215.00072    -190.7083   -215.00072    42.569217    1896.1542            0            0   -2153.7241   -1.5114234    38.003403    8.8546979    7.6683882    7.2298172     490.9137 
  533500    323.51814    -197.6944   -167.79967    -197.6944    33.536917    1921.4841            0            0   -2152.7154   -1.3365963   -966.49525    9.2250567    7.9891281    7.5322134    555.12533 
  534000     299.5302   -202.58639   -174.90827   -202.58639    27.529363    1924.1626            0            0   -2154.2783    -1.679321   -1006.8285    8.5491819    7.4038037    6.9803649    441.83242 
  534500    294.80614   -216.41048   -189.16889   -216.41048    41.312479    1896.2726            0            0   -2153.9955    -1.560056    478.71218    8.7617139    7.5878617    7.1538963    475.61015 
  535000    302.73278   -214.91159   -186.93753   -214.91159    38.309591     1900.626            0            0   -2153.8471   -1.3894671   -2165.2213    9.1065325    7.8864832     7.435439    534.00219 
  535500    307.81871   -217.37554   -188.93152   -217.37554    45.331047    1890.8664            0            0   -2153.5729   -1.4605461    904.43077    8.9563428    7.7564152    7.3128098    508.01441 
  536000    275.69653   -220.34793   -194.87217   -220.34793    38.658452     1894.515            0            0   -2153.5214   -1.4204212   -3365.9084    9.0398956     7.828774    7.3810303    522.36511 
  536500    230.30174   -215.93511   -194.65405   -215.93511    46.367249     1891.431            0            0   -2153.7334    -1.475362     1757.136    8.9262614    7.7303639    7.2882485    502.91283 
  537000    203.89992   -220.38323   -201.54184   -220.38323    45.022595    1888.3864            0            0   -2153.7923   -1.4388893   -571.76704    9.0010534    7.7951356    7.3493157    515.66056 
  537500    304.29368   -216.43194   -188.31365   -216.43194    28.477132    1908.5152            0            0   -2153.4242   -1.4535497   -6020.4592    8.9706898      7.76884     7.324524    510.45966 
  538000    367.49114   -213.78946    -179.8314   -213.78946    28.921924    1910.7033            0            0   -2153.4147   -1.4895108    -4437.419     8.897908    7.7058092    7.2650981    498.13567 
  538500    310.13217   -215.90335   -187.24555   -215.90335    40.412913    1897.8454            0            0   -2154.1616    -1.364805   -1939.2009    9.1610572    7.9337029    7.4799581    543.65163 
  539000    273.90927   -204.24577   -178.93515   -204.24577    35.531343     1914.051            0            0   -2153.8281   -1.3819133   -2959.1347    9.1230949    7.9008266    7.4489621    536.92112 
  539500    233.32653   -217.16076   -195.60019   -217.16076    59.956098     1876.844            0            0   -2153.9609    -1.455523    5335.8853     8.966634    7.7653276    7.3212125    509.76761 
  540000      364.271   -211.98039   -178.31989   -211.98039     41.50192    1900.4473            0            0   -2153.9296   -1.4930567   -271.90825    8.8908584    7.6997041    7.2593421    496.95263 
  540500    348.53077   -228.83436   -196.62833   -228.83436    55.727541    1869.5896            0            0   -2154.1515    -1.385213    2074.1035    9.1158453    7.8945483    7.4430428    535.64216 
  541000    268.85067   -220.02322   -195.18005   -220.02322    42.661483    1891.1327            0            0   -2153.8174   -1.3486944   -2266.6201    9.1973903    7.9651683    7.5096239    550.14574 
  541500    271.76821    -218.5109   -193.39812    -218.5109    32.320162    1903.1658            0            0   -2153.9969   -1.4578225   -5142.4652     8.961917    7.7612426    7.3173611    508.96352 
  542000    288.25505   -210.44075   -183.80451   -210.44075    22.547645    1920.7907            0            0   -2153.7791   -1.5038075   -7422.6138    8.8696206    7.6813116    7.2420016    493.39989 
  542500    308.77286   -219.97743   -191.44524   -219.97743    38.079567    1895.6221            0            0   -2153.6791   -1.3773965   -4553.6192    9.1330564    7.9094535    7.4570955    538.68182 
  543000    390.46906     -214.688   -178.60666     -214.688    35.537435    1903.2333            0            0   -2153.4587   -1.3947441   -3911.6275    9.0950332    7.8765245    7.4260498    531.98179 
  543500    305.62524   -220.11707   -191.87573   -220.11707    43.844814    1890.0015            0            0   -2153.9634   -1.3263526   -1481.1909    9.2487448    8.0096425    7.5515546    559.41266 
  544000    335.01801   -232.25074   -201.29336   -232.25074    53.030671    1868.9907            0            0   -2154.2721   -1.3792138    539.83594    9.1290434    7.9059781    7.4538189    537.97206 
  544500    344.13445   -233.73087   -201.93109   -233.73087    55.891029    1864.2684            0            0   -2153.8903   -1.3816734     1018.659    9.1236231     7.901284    7.4493933    537.01438 
  545000    311.68806   -214.52792   -185.72635   -214.52792    52.827763    1886.3639            0            0   -2153.7196    -1.347394    3098.9492    9.2003482    7.9677299     7.512039    550.67671 
  545500    407.11128    -223.2496   -185.63043    -223.2496    53.125833    1877.6335            0            0   -2154.0089   -1.3525556    1612.7892    9.1886299    7.9575815     7.502471    548.57521 
  546000    274.34607   -220.99689   -195.64591   -220.99689    50.097081    1882.8732            0            0   -2153.9672   -1.3880584    1340.6662    9.1096121    7.8891501    7.4379534    534.54412 
  546500    335.12643   -229.56759   -198.60019   -229.56759    65.618315    1859.0846            0            0   -2154.2705   -1.3836534    5556.7468    9.1192689    7.8975132    7.4458382    536.24589 
  547000     298.1544   -223.78337   -196.23238   -223.78337    46.010569    1883.9506            0            0   -2153.7445   -1.2954772   -2120.9918    9.3216445    8.0727755    7.6110768    572.74528 
  547500    322.26991   -227.38736   -197.60798   -227.38736    44.432419    1882.2948            0            0   -2154.1146   -1.3351861   -2444.9052    9.2283034    7.9919398    7.5348642    555.71164 
  548000    307.48555   -224.30347   -195.89024   -224.30347    62.964016    1866.9769            0            0   -2154.2444   -1.3622976    4765.3095    9.1666742    7.9385674    7.4845444    544.65225 
  548500    321.76842   -223.22449   -193.49145   -223.22449    52.630664    1878.3063            0            0   -2154.1614    -1.354083    775.84187    9.1851736    7.9545883     7.499649    547.95642 
  549000     264.6179   -226.68844    -202.2364   -226.68844    50.044772    1877.0211            0            0   -2153.7543   -1.3978813   -16.268125    9.0882243    7.8706278    7.4204904     530.7879 
  549500    236.92529   -229.25928   -207.36617   -229.25928    45.956464    1878.9794            0            0   -2154.1951   -1.3406542   -2656.2371    9.2157398    7.9810594    7.5246061    553.44506 
  550000    234.75214   -237.11091   -215.41862   -237.11091    60.727538     1856.508            0            0   -2154.3465   -1.4111111    2602.3755     9.059733    7.8459536    7.3972274    525.81153 
  550500    277.20832   -230.98406   -205.36859   -230.98406    52.509024    1870.6479            0            0    -2154.141   -1.3868561    377.66274    9.1122439    7.8914294    7.4401022    535.00755 
  551000    325.11024   -227.87615    -197.8343   -227.87615    43.117108    1882.8189            0            0   -2153.8122   -1.3340654   -3835.3268    9.2308869    7.9941771    7.5369737     556.1785 
  551500    326.92871   -240.45556   -210.24567   -240.45556     62.73247    1850.7519            0            0   -2153.9399   -1.4349006    2720.4171    9.0093859    7.8023518    7.3561192    517.09398 
  552000     245.7499   -234.08462   -211.37608   -234.08462    52.101695    1868.0582            0            0   -2154.2445   -1.3922693   -1060.8828    9.1004188    7.8811885    7.4304471    532.92739 
  552500    328.67873   -230.81774   -200.44615   -230.81774    59.238969    1864.1763            0            0   -2154.2331   -1.3979346    3067.8698    9.0881087    7.8705277     7.420396    530.76766 
  553000    256.40293   -219.61645    -195.9235   -219.61645    42.856798    1891.5477            0            0   -2154.0209   -1.3066198   -3400.5139    9.2950711    8.0497623    7.5893798    567.86103 
  553500     279.5584   -224.80912    -198.9765   -224.80912    49.303358    1879.9128            0            0   -2154.0253   -1.3621885   -942.52734     9.166919    7.9387794    7.4847442    544.69588 
  554000    336.69604   -239.71738   -208.60494   -239.71738    70.184625    1844.5843            0            0   -2154.4863   -1.4791517    6705.9376    8.9186317    7.7237564    7.2820189    501.62433 
  554500    244.50557   -226.69707   -204.10351   -226.69707    52.158298    1874.9368            0            0   -2153.7922   -1.3611044    -367.4974     9.169352    7.9408864    7.4867308    545.12971 
  555000    220.58236   -229.11775   -208.73481   -229.11775     55.65843    1869.2157            0            0   -2153.9918   -1.3950454    1030.1874    9.0943783    7.8759573    7.4255151    531.86689 
  555500    355.47787   -229.14412   -196.29615   -229.14412    46.766341    1878.2424            0            0   -2154.1528   -1.3571575   -2577.8138    9.1782322    7.9485769    7.4939814    546.71506 
  556000    358.88837   -238.80018   -205.63706   -238.80018    52.276371    1863.0549            0            0   -2154.1314    -1.405146   -1654.5401    9.0725349    7.8570404    7.4076801    528.04368 
  556500    362.73885   -220.94738   -187.42845   -220.94738    43.504959     1888.921            0            0   -2153.3734   -1.3743539   -2009.0015    9.1397911    7.9152859    7.4625944    539.87437 
  557000    227.18394   -229.26331   -208.27036   -229.26331    53.072664    1871.4664            0            0   -2153.8024   -1.4092314    360.44994    9.0637592    7.8494404    7.4005147    526.51286 
  557500    278.13435   -227.20404   -201.50301   -227.20404    57.020988    1870.0905            0            0   -2154.3156   -1.4534205     3575.823    8.9709556    7.7690702     7.324741    510.50503 
  558000    240.34599   -225.18275   -202.97355   -225.18275    54.546945    1874.4264            0            0   -2154.1561   -1.3999458    1142.4658    9.0837546     7.866757    7.4168409    530.00515 
  558500    347.40695   -231.58996   -199.48778   -231.58996    66.542985    1856.0064            0            0   -2154.1393   -1.4552261    6568.1129    8.9672436    7.7658555    7.3217102    509.87159 
  559000    422.02964   -235.86327   -196.86558   -235.86327    49.415891    1868.7805            0            0   -2154.0597   -1.3642388   -2034.2537    9.1623245    7.9348004    7.4809928    543.87727 
  559500    230.36436   -235.08208   -213.79523   -235.08208    57.342323     1861.819            0            0   -2154.2434   -1.4215219    484.84864    9.0375618    7.8267528    7.3791247    521.96063 
  560000     289.6357   -230.21166   -203.44784   -230.21166    40.040019    1883.8936            0            0   -2154.1452   -1.3061753   -6060.6957    9.2961253    8.0506753    7.5902405    568.05426 
  560500    315.03741   -239.29964   -210.18857   -239.29964    66.253029    1848.4446            0            0   -2153.9973   -1.4253441    4559.6581    9.0294762    7.8197505    7.3725229    520.56095 
  561000    312.71365   -234.15551   -205.25917   -234.15551    45.041814    1874.9916            0            0   -2154.1889   -1.3637426   -3810.8443    9.1634356    7.9357626       7.4819    544.07516 
  561500    271.06141   -228.24172   -203.19426   -228.24172    54.568956    1871.1359            0            0   -2153.9465   -1.3821863    1013.2376    9.1224944    7.9003065    7.4484717    536.81509 
  562000    293.08981   -241.14897   -214.06597   -241.14897    61.133134    1852.0206            0            0   -2154.3027    -1.419835    1740.2683    9.0411395    7.8298512    7.3820459    522.58077 
  562500    291.16566    -229.1914    -202.2862    -229.1914    48.457161    1876.3986            0            0   -2154.0472    -1.376651   -1748.8032    9.1347047     7.910881    7.4584414    538.97353 
  563000    237.74551   -224.12051   -202.15161   -224.12051    62.687543    1867.0778            0            0   -2153.8859   -1.4264714    5335.8328    9.0270971    7.8176901    7.3705803    520.14957 
  563500    301.16634   -233.97736   -206.14805   -233.97736    44.773039    1875.4438            0            0   -2154.1942   -1.3524388   -4029.9061    9.1888943    7.9578105    7.5026869    548.62257 
  564000    316.29785   -232.00952   -202.78198   -232.00952    51.021855    1871.1478            0            0   -2154.1792   -1.4000116   -178.88171    9.0836122    7.8666336    7.4167246    529.98022 
  564500    319.17676   -228.89276   -199.39919   -228.89276    44.525061    1880.9849            0            0   -2154.4027   -1.4338269    -2727.899    9.0116342    7.8042989    7.3579549    517.48119 
  565000    313.39741   -238.37282    -209.4133   -238.37282    60.555219    1855.3654            0            0   -2154.2934   -1.4219972     2725.317    9.0365548    7.8258807    7.3783025    521.78617 
  565500    290.91331   -228.47817    -201.5963   -228.47817    41.753453    1883.4688            0            0   -2153.7004   -1.3707462   -4066.6701    9.1478025     7.922224    7.4691357    541.29529 
  566000    276.90098   -223.30405   -197.71699   -223.30405    33.542896    1897.0512            0            0   -2153.8981   -1.2979256   -6715.7718    9.3157794    8.0676962     7.606288    571.66485 
  566500    207.47208   -228.80651   -209.63503   -228.80651    51.819626     1873.336            0            0   -2153.9621   -1.4128284    287.62436    9.0560607    7.8427734     7.394229    525.17239 
  567000    289.51708   -237.11216   -210.35931   -237.11216     63.49542    1853.4865            0            0   -2154.0941   -1.4324483    3346.0837    9.0145244    7.8068018    7.3603147    517.97924 
  567500    308.27389   -228.58689    -200.1008   -228.58689     37.63222    1887.6472            0            0   -2153.8663   -1.3229018    -6626.144    9.2567796    8.0166009     7.558115     560.8719 
  568000    270.88876   -236.13431    -211.1028   -236.13431    69.307678    1848.7792            0            0   -2154.2212     -1.45917     6409.663    8.9591574    7.7588527    7.3151079    508.49351 
  568500    244.16238   -235.62508   -213.06323   -235.62508    41.191851    1877.3347            0            0   -2154.1516    -1.325728   -6096.9454     9.250197    8.0109002    7.5527403    559.67622 
  569000    292.37604   -231.11349   -204.09645   -231.11349    53.705274    1869.1037            0            0   -2153.9225   -1.3828446    569.86235    9.1210466    7.8990527    7.4472896    536.55955 
  569500    231.24321   -236.41567   -215.04761   -236.41567     58.34094    1859.6391            0            0   -2154.3957   -1.4205468    1307.2451    9.0396292    7.8285432    7.3808127    522.31892 
  570000    298.34288   -219.42004   -191.85163   -219.42004    49.488129    1885.0167            0            0   -2153.9248   -1.3805131    184.75842    9.1261783    7.9034969    7.4514796     537.4657 
  570500    332.38754   -238.15972   -207.44541   -238.15972    64.074467    1852.0252            0            0   -2154.2594   -1.4387167    4252.7095    9.0014133    7.7954473    7.3496096    515.72242 
  571000    281.39187   -232.85595   -206.85391   -232.85595    39.161763    1882.0608            0            0   -2154.0785   -1.3357699   -6360.4822    9.2269587    7.9907753    7.5337664    555.46877 
  571500    279.02834   -230.83689   -205.05324   -230.83689    66.092335    1857.1787            0            0   -2154.1079   -1.4809685    5953.2304    8.9149831    7.7205966    7.2790398    501.00894 
  572000    310.46464   -223.77098   -195.08246   -223.77098    52.554518    1877.7484            0            0   -2154.0739   -1.4464964    1640.9365    8.9852469    7.7814469    7.3364099    512.94873 
  572500    396.44099   -223.47074   -186.83756   -223.47074    48.586882    1881.9463            0            0    -2154.004   -1.3994107   -138.32431    9.0849121    7.8677594     7.417786    530.20779 
  573000    310.58409   -232.50005   -203.80049   -232.50005    51.469568    1870.2184            0            0    -2154.188   -1.3749619   -1211.4187    9.1384437    7.9141191    7.4614943    539.63566 
  573500    241.10486   -227.16108   -204.88176   -227.16108    62.884009    1863.9182            0            0   -2153.9633   -1.4424257    5724.9065    8.9936914    7.7887599    7.3433047    514.39631 
  574000     374.5945   -228.37459   -193.76014   -228.37459    40.386488    1885.5123            0            0   -2154.2734   -1.3385039   -4321.3047    9.2206722     7.985331    7.5286335    554.33419 
  574500    310.51343   -226.28209   -197.58907   -226.28209    51.467014    1876.0887            0            0   -2153.8378   -1.3806718    235.86154    9.1258287    7.9031942    7.4511942    537.40395 
  575000    344.06618    -237.2051   -205.41163    -237.2051    53.322672    1863.5123            0            0   -2154.0401   -1.3984311    -872.7572    9.0870329    7.8695961    7.4195176    530.57919 
  575500    261.06298     -222.891   -198.76744     -222.891    46.797091    1883.9217            0            0   -2153.6098    -1.365918   -1238.4947    9.1585683    7.9315474    7.4779259    543.20864 
  576000    317.19385   -232.24183    -202.9315   -232.24183    64.611207    1857.2229            0            0   -2154.0759   -1.4355556    4866.0808    9.0080156    7.8011651    7.3550003    516.85806 
  576500     323.6597    -230.6435   -200.73569    -230.6435    53.951655     1869.605            0            0   -2154.2002   -1.3861096    443.90172    9.1138793    7.8928456    7.4414375    535.29566 
  577000    327.71439   -227.98882   -197.70633   -227.98882    46.371287    1879.7249            0            0    -2154.085    -1.358641   -2338.4397    9.1748906     7.945683     7.491253    546.11813 
  577500    277.78892   -232.26683   -206.59771   -232.26683    51.585479    1870.1514            0            0   -2154.0037   -1.3563613   -1415.5886     9.180028    7.9501321    7.4954476    547.03602 
  578000    280.96039   -227.10457   -201.14239   -227.10457    57.561574    1869.4063            0            0   -2154.0724   -1.3469193    1686.8167    9.2014288    7.9686657    7.5129213    550.87076 
  578500    232.83725   -238.73224   -217.21689   -238.73224     56.92934    1858.4127            0            0   -2154.0743   -1.4123161    535.38999    9.0571556    7.8437215    7.3951229    525.36289 
  579000    321.04196   -232.35168   -202.68576   -232.35168    48.821848    1872.7397            0            0   -2153.9132   -1.3838861   -1220.8924    9.1187578    7.8970706    7.4454208    536.15573 
  579500    293.67364   -227.68073   -200.54379   -227.68073    53.524845    1873.0935            0            0   -2154.2991   -1.4463015    833.43145    8.9856505    7.7817963    7.3367394    513.01784 
  580000    287.43877   -225.93336   -199.37255   -225.93336    44.663822    1883.4646            0            0   -2154.0618   -1.3385906   -2762.3561    9.2204731    7.9851585    7.5284708    554.29826 
  580500    387.01411   -219.08393   -183.32184   -219.08393    60.532131    1873.5458            0            0   -2153.1619   -1.4315641    5777.3745    9.0163798    7.8084087    7.3618297    518.29916 
  581000    336.51522   -229.51895   -198.42322   -229.51895    32.850968    1891.8045            0            0   -2154.1744   -1.2728786   -8782.3143    9.3764867    8.1202702    7.6558552    582.91379 
  581500    288.63333   -228.26345   -201.59226   -228.26345    52.351887    1873.4744            0            0   -2154.0897   -1.3916479   -476.41111    9.1017732    7.8823615     7.431553    533.16538 
  582000     317.1657   -226.60099   -197.29326   -226.60099    42.675763    1884.2162            0            0    -2153.493   -1.3380724   -3371.4484    9.2216633    7.9861893    7.5294427    554.51295 
  582500    422.55263   -230.74919   -191.70317   -230.74919    58.005354    1865.3735            0            0   -2154.1281   -1.3828556    2888.1461    9.1210223    7.8990317    7.4472698    536.55527 
  583000    288.60922   -231.81933   -205.15037   -231.81933    53.785655    1868.5676            0            0   -2154.1726   -1.3906163    830.32407    9.1040232      7.88431    7.4333901    533.56087 
  583500    313.03198   -228.81425    -199.8885   -228.81425    48.999106    1875.9783            0            0   -2153.7917   -1.3685111   -1044.7012      9.15278    7.9265347    7.4731998    542.17937 
  584000    298.51056    -230.8134   -203.22949    -230.8134    50.183124    1873.2991            0            0   -2154.2956   -1.4201185     -958.929    9.0405379    7.8293302    7.3815546    522.47645 
  584500    243.59799   -228.63226   -206.12256   -228.63226    41.069405    1884.4426            0            0   -2154.1443   -1.3290579   -4908.3177    9.2424653    8.0042043    7.5464274    558.27399 
  585000    304.73355   -227.75864   -199.59971   -227.75864    66.289926    1860.0272            0            0   -2154.0758   -1.4551755    7145.4377    8.9673476    7.7659456    7.3217952    509.88933 
  585500    258.41088   -228.30393   -204.42545   -228.30393    43.179177    1882.1362            0            0   -2153.6193   -1.3479447   -3681.9712    9.1990951    7.9666447    7.5110158    550.45172 
  586000    354.48415   -232.07538   -199.31923   -232.07538    45.074282    1876.8991            0            0   -2154.0488    -1.351143    -3448.378    9.1918309    7.9603537    7.5050847    549.14874 
  586500    429.04263   -225.20482   -185.55909   -225.20482    39.847369    1888.8384            0            0   -2153.8906   -1.3125505   -4433.5828    9.2810502    8.0376198    7.5779318    565.29517 
  587000    304.59755    -221.7876   -193.64123    -221.7876    46.226173    1885.9739            0            0   -2153.9877   -1.2895252   -2054.8168    9.3359644    8.0851769     7.622769     575.3889 
  587500    264.51018    -219.6969   -195.25481    -219.6969    63.502148    1870.6202            0            0   -2153.8192   -1.4016545    6165.1008    9.0800618    7.8635588    7.4138257    529.35902 
  588000    330.26131   -225.03598   -194.51814   -225.03598    42.045152    1887.0878            0            0    -2154.169   -1.3348555   -3242.8121    9.2290651    7.9925994    7.5354862    555.84926 
  588500    248.70751   -232.52689   -209.54505   -232.52689    53.015698    1868.5038            0            0   -2154.0464   -1.3723814   -610.77223    9.1441679    7.9190764    7.4661681    540.65034 
  589000      220.911    -240.5169   -220.10359    -240.5169    51.974675    1861.6048            0            0   -2154.0963   -1.3752525   -2488.3182    9.1377999    7.9135615    7.4609686    539.52161 
  589500      278.156   -231.39572   -205.69269   -231.39572      62.0447    1860.3514            0            0   -2153.7918   -1.4021639    3274.9654    9.0789622    7.8626066    7.4129279    529.16673 
  590000    241.93046   -231.51768   -209.16207   -231.51768    54.245902    1868.4698            0            0   -2154.2333    -1.421982   -121.68258     9.036587    7.8259086    7.3783288    521.79175 
  590500    191.54772   -225.00119    -207.3012   -225.00119    45.018485    1883.9759            0            0   -2153.9956   -1.3609911   -2749.4866    9.1696065    7.9411068    7.4869386    545.17509 
  591000    305.59953   -236.26631   -208.02735   -236.26631    64.327873    1853.5945            0            0   -2154.1887   -1.4698074    5395.9788    8.9374917    7.7400897     7.297418    504.81339 
  591500    285.20853   -217.67047   -191.31575   -217.67047    37.859315     1898.497            0            0   -2154.0268   -1.3869002   -3176.6512    9.1121473    7.8913457    7.4400234    534.99053 
  592000    277.99711   -226.60233   -200.91398   -226.60233    38.467133    1888.9208            0            0   -2153.9903   -1.3253882   -5717.4577    9.2509876    8.0115849    7.5533858    559.81973 
  592500    281.08051   -229.24033   -203.26705   -229.24033    72.963164    1851.9478            0            0   -2154.1513   -1.4500859    9677.9203    8.9778267    7.7750207    7.3303513    511.67896 
  593000    307.24102   -232.67515    -204.2845   -232.67515     46.38708    1875.1612            0            0   -2154.2234   -1.3558356   -3303.0879    9.1812142    7.9511594    7.4964162    547.24811 
  593500    419.42118   -240.05136    -201.2947   -240.05136    52.904062    1861.2776            0            0   -2154.2331   -1.4001492   -792.30987    9.0833147     7.866376    7.4164817    529.92815 
  594000    259.93191   -231.56804   -207.54901   -231.56804    60.759227     1861.988            0            0   -2154.3152   -1.4235462     3970.776    9.0332759    7.8230412    7.3756253     521.2184 
  594500    350.55229   -226.30666   -193.91383   -226.30666    52.848667    1874.8643            0            0   -2154.0196   -1.3876142    314.37275    9.1105841     7.889992     7.438747    534.71525 
  595000    259.94408   -231.51569   -207.49553   -231.51569    57.495419    1865.2042            0            0   -2154.2153   -1.4269497    1911.7544    9.0260883    7.8168165    7.3697566    519.97521 
  595500    210.58805   -232.54805   -213.08864   -232.54805    44.722742    1876.7879            0            0   -2154.0587   -1.3854169   -4164.1579    9.1153981     7.894161    7.4426776    535.56332 
  596000    288.91013   -227.85274   -201.15597   -227.85274    60.926761    1864.8368            0            0   -2153.6163   -1.4398435    4618.5793    8.9990646    7.7934133    7.3476919    515.31883 
  596500    304.09836   -233.57574    -205.4755   -233.57574    54.154924    1866.5162            0            0   -2154.2469   -1.3865076    138.94279    9.1130072    7.8920905    7.4407255    535.14202 
  597000    339.05587   -234.77483   -203.44434   -234.77483     53.77594    1865.6366            0            0   -2154.1874     -1.43321     1182.578    9.0129271    7.8054186    7.3590106    517.70395 
  597500    407.90382   -228.63573   -190.94333   -228.63573    47.455311    1878.0507            0            0   -2154.1418   -1.4021001   -1009.0288    9.0790997    7.8627257    7.4130402    529.19078 
  598000    348.57607   -224.80344   -192.59323   -224.80344    47.133498    1882.2571            0            0   -2154.1941   -1.3330273   -1884.1151    9.2332824    7.9962517    7.5389296    556.61162 
  598500    321.86794   -222.82928   -193.08703   -222.82928    50.881079    1880.4246            0            0   -2154.1349   -1.3692351   -252.26347    9.1511664    7.9251372    7.4718823    541.89265 
  599000      206.604    -228.7088   -209.61753    -228.7088    50.405588    1875.0354            0            0   -2154.1498    -1.384088   -1909.7261    9.1183144    7.8966866    7.4450588    536.07752 
  599500    331.18395   -238.61803   -208.01494   -238.61803    60.807229    1854.9113            0            0   -2154.3365   -1.4022277    1988.3663    9.0788243    7.8624872    7.4128154    529.14263 
  600000    285.67865   -232.83471   -206.43655   -232.83471    57.436716    1863.7753            0            0   -2154.0468   -1.4174078    2189.4466    9.0462973     7.834318    7.3862572    523.47563 
  600500    280.32452   -226.64646   -200.74304   -226.64646     52.55695    1874.7603            0            0   -2153.9637   -1.3839342    258.10816    9.1186521     7.896979    7.4453345    536.13708 
  601000     339.8328    -228.3221   -196.91982    -228.3221    53.783617    1871.8659            0            0   -2153.9716    -1.388271    809.09358     9.109147    7.8887474    7.4375737    534.46225 
  601500       251.39   -231.25677   -208.02705   -231.25677    47.855813     1875.035            0            0   -2154.1476    -1.361729   -2121.0531    9.1679499    7.9396721    7.4855859    544.87966 
  602000    404.69576    -222.1937   -184.79774    -222.1937    43.886223    1887.5256            0            0   -2153.6055   -1.3736435   -964.95465    9.1413664    7.9166502    7.4638806    540.15357 
  602500    270.32923   -225.07747   -200.09767   -225.07747    40.031508    1889.0566            0            0   -2154.1656   -1.4281693   -4384.0397    9.0235182    7.8145907    7.3676582    519.53116 
  603000    301.51755   -230.57229   -202.71053   -230.57229    53.705708    1870.0513            0            0   -2154.3293   -1.3990442     46.45691    9.0857054    7.8684464    7.4184337    530.34668 
  603500    266.13345   -226.79009     -202.198   -226.79009    60.356777    1866.8344            0            0   -2153.9812   -1.3840977    3430.7942    9.1182932    7.8966682    7.4450415    536.07378 
  604000    303.82638   -224.22675   -196.15164   -224.22675    56.105943      1873.75            0            0   -2154.0827   -1.3830411     1990.354    9.1206146    7.8986786    7.4469369    536.48332 
  604500    272.55303   -224.09788   -198.91258   -224.09788    44.491027    1885.4867            0            0   -2154.0756   -1.3396383   -2892.3344    9.2180689    7.9830764    7.5265078    553.86479 
  605000    289.93618   -232.15479    -205.3632   -232.15479    58.758175    1863.3904            0            0   -2154.3033   -1.4001245    2181.4726    9.0833681    7.8664223    7.4165254    529.93751 
  605500    337.78025   -228.38422    -197.1716   -228.38422    40.946001    1884.8333            0            0   -2154.1635   -1.3165982   -4974.2766    9.2715294    8.0293746    7.5701581    563.55726 
  606000    355.83392   -228.66919   -195.78832   -228.66919    52.766135    1872.6581            0            0   -2154.0935   -1.4836734    1435.9719    8.9095621    7.7159019    7.2746136    500.09555 
  606500    249.41565   -232.70196   -209.65468   -232.70196    57.801613    1863.7247            0            0   -2154.2283   -1.4252714    1064.3869    9.0296297    7.8198834    7.3726481    520.58749 
  607000    366.16125   -232.10071   -198.26554   -232.10071    53.502949    1868.5773            0            0    -2154.181   -1.3952167     927.2309     9.094006    7.8756349    7.4252111    531.80158 
  607500    333.43526   -233.03673   -202.22561   -233.03673    64.378652    1856.8939            0            0   -2154.3093   -1.4650386    5994.2212    8.9471786    7.7484787    7.3053273    506.45659 
  608000    284.33724   -230.76412    -204.4899   -230.76412    53.042576    1870.2926            0            0   -2154.0993   -1.3963655    333.63525    9.0915116    7.8734747    7.4231744    531.36409 
  608500    272.48464   -233.18451   -208.00554   -233.18451    51.820714    1869.0541            0            0   -2154.0593   -1.3734942   -359.16737    9.1416977    7.9169371    7.4641512    540.21232 
  609000    308.28363   -236.82929   -208.34231   -236.82929    55.314609    1862.0411            0            0    -2154.185   -1.4019529   -398.33842    9.0794175    7.8630009    7.4132997    529.24635 
  609500      338.407   -229.60684    -198.3363   -229.60684    44.613424     1879.635            0            0   -2153.8553   -1.3686244   -3403.7386    9.1525274    7.9263159    7.4729935    542.13447 
  610000    214.31877   -228.90444   -209.10029   -228.90444    47.952049    1877.4603            0            0   -2154.3168   -1.3730434   -2727.5205    9.1426979    7.9178033    7.4649678    540.38965 
  610500    353.99884   -225.63923   -192.92793   -225.63923    58.047855    1870.3187            0            0   -2154.0057   -1.4402632    3518.0732    8.9981903    7.7926561    7.3469781    515.16865 
  611000    281.86315   -230.06237   -204.01677   -230.06237    38.093028    1885.5632            0            0   -2153.7186   -1.3180856    -5879.712    9.2680406    8.0263532    7.5673095    562.92131 
  611500    270.17582   -234.23516   -209.26953   -234.23516    54.845063    1864.8309            0            0   -2153.9112   -1.3901064   -19.953389    9.1051362     7.885274    7.4342989    533.75659 
  612000    286.00216   -229.99619   -203.56813   -229.99619    60.223912    1863.7944            0            0   -2154.0145   -1.5055505    4896.5837    8.8661965    7.6783462    7.2392057    492.82866 
  612500    253.29477   -224.54861   -201.14288   -224.54861    33.135764    1896.3645            0            0   -2154.0488   -1.2750858    -8016.429    9.3710733     8.115582    7.6514352    581.90476 
  613000    279.80238   -229.09349   -203.23832   -229.09349    63.059249    1861.9376            0            0   -2154.0904   -1.4171603    5189.7595     9.046824    7.8347741    7.3866872    523.56708 
  613500    255.75397   -234.45073   -210.81775   -234.45073    60.319839    1859.1384            0            0    -2153.909   -1.4186416    2587.2975    9.0436741    7.8320463    7.3841154    523.02039 
  614000    370.66209   -230.83967    -196.5886   -230.83967    51.267961     1872.071            0            0   -2154.1786    -1.419173    466.38136    9.0425452    7.8310686    7.3831936    522.82455 
  614500    320.49709   -221.79609   -192.18052   -221.79609    40.002688    1891.9893            0            0   -2153.7881   -1.3745883   -3752.2104    9.1392715    7.9148359    7.4621702     539.7823 
  615000    372.70726   -221.90845   -187.46839   -221.90845    60.162127      1872.16            0            0   -2154.2306   -1.4324242    5319.5885    9.0145748    7.8068455    7.3603559    517.98794 
  615500     315.9301   -229.24292   -200.04936   -229.24292    35.522476     1889.246            0            0   -2154.0114   -1.3201748   -6812.0513     9.263149     8.022117    7.5633156    562.03047 
  616000    261.46507   -232.85618   -208.69547   -232.85618    60.665597    1860.4988            0            0   -2154.0206   -1.3991375    2118.3649    9.0855035    7.8682715    7.4182688    530.31133 
  616500    236.01306   -235.31712    -213.5083   -235.31712    59.409584     1859.506            0            0   -2154.2327   -1.3947891     1027.112    9.0949354    7.8764398    7.4259699    531.96463 
  617000    295.88305    -234.4162   -207.07509    -234.4162    64.918365    1854.7841            0            0   -2154.1186   -1.4119789    4034.2603    9.0578765    7.8443458    7.3957115    525.48834 
  617500    294.76925   -231.18941   -203.95123   -231.18941    55.513648    1867.5744            0            0   -2154.2775   -1.3719016     -273.375    9.1452338    7.9199995    7.4670384    540.83943 
  618000    307.18025   -225.75736   -197.37233   -225.75736    52.364675    1875.7108            0            0   -2153.8329   -1.3751602     281.3137    9.1380044    7.9137387    7.4611356    539.55784 
  618500    303.54858   -231.47377   -203.42433   -231.47377    59.750577      1862.83            0            0   -2154.0544   -1.4155144    2680.8377     9.050329    7.8378095     7.389549    524.17585 
  619000    287.53633   -230.99792    -204.4281   -230.99792    38.414739    1884.8376            0            0   -2154.2502    -1.359326   -5789.4434    9.1733491     7.944348    7.4899943     545.8429 
  619500    276.53183   -233.80451   -208.25156   -233.80451    65.579046    1854.9195            0            0   -2154.3031   -1.4505088    6018.2523    8.9769542    7.7742651    7.3296389    511.52979 
  620000    310.70979   -238.33188    -209.6207   -238.33188    51.165415     1864.643            0            0   -2154.1403   -1.3811054   -1807.9347    9.1248736     7.902367    7.4504143    537.23522 
  620500    332.40943     -226.488   -195.77167     -226.488     56.33552    1871.3134            0            0   -2154.1369   -1.3944872    2462.9281    9.0955917    7.8770082    7.4265058    532.07981 
  621000    252.46136    -221.6105   -198.28178    -221.6105    47.491674    1884.7228            0            0   -2153.8249    -1.353772   -1544.8097    9.1858769    7.9551974    7.5002233     548.0823 
  621500    277.58513   -239.08891   -213.43862   -239.08891    44.878547    1870.4434            0            0   -2154.4108   -1.3764419   -4977.7126    9.1351672    7.9112815     7.458819    539.05541 
  622000    275.77167   -232.41811    -206.9354   -232.41811    67.186704    1854.5745            0            0   -2154.1793     -1.43521    5561.5956    9.0087385    7.8017911    7.3555906     516.9825 
  622500    267.83542   -230.98893   -206.23957   -230.98893    42.644281    1880.4592            0            0   -2154.0924   -1.3469437   -4225.1413    9.2013732    7.9686176    7.5128759    550.86078 
  623000    301.00182   -227.93881   -200.12471   -227.93881    54.889223    1871.2469            0            0    -2154.075   -1.4155637    1835.1605    9.0502238    7.8377185    7.3894632    524.15758 
  623500    275.71476   -230.29838   -204.82093   -230.29838    44.356156     1879.446            0            0   -2154.1006   -1.3693219    -3459.151    9.1509731    7.9249698    7.4717244    541.85831 
  624000    266.97039   -233.49548   -208.82605   -233.49548    69.345739    1851.1769            0            0   -2154.0181   -1.4245184     6458.352    9.0312204     7.821261     7.373947    520.86266 
  624500    322.20347   -235.95088   -206.17763   -235.95088    61.898115    1855.9928            0            0   -2153.8418   -1.3909457    2701.1738    9.1033045    7.8836876    7.4328033    533.43452 
  625000    241.86422   -224.77475   -202.42526   -224.77475    50.736893    1878.5434            0            0   -2154.0551    -1.456083    381.76356    8.9654844     7.764332    7.3202738    509.57156 
  625500    311.57218   -229.06822   -200.27736   -229.06822    30.785839    1894.2511            0            0   -2154.1052   -1.2727489    -8851.077    9.3768051     8.120546    7.6561152    582.97318 
  626000    287.42878   -232.99779    -206.4379   -232.99779    51.685785    1869.5027            0            0   -2154.1863   -1.4213184    283.82069    9.0379932    7.8271264    7.3794769    522.03538 
  626500     301.2319   -227.12529   -199.28992   -227.12529    52.840213    1874.1961            0            0   -2154.1616   -1.3833918    568.34845    9.1198437     7.898011    7.4463074    536.34729 
  627000    360.76333   -228.14248    -194.8061   -228.14248    51.891716    1873.9112            0            0   -2153.9454   -1.3793537    821.87614    9.1287347    7.9057108    7.4535669    537.91749 
  627500    288.40854   -231.36577   -204.71535   -231.36577    50.033948    1872.8445            0            0   -2154.2442   -1.3891796    -966.0484    9.1071608    7.8870273    7.4359519    534.11272 
  628000    311.52808   -223.36906   -194.58228   -223.36906    47.573549    1882.9243            0            0    -2153.867   -1.3682286   -888.06446      9.15341    7.9270802    7.4737141    542.29131 
  628500    346.35277   -223.35199   -191.34723   -223.35199    49.869914    1880.8032            0            0   -2154.0251   -1.3449088   -383.96352    9.2060116    7.9726346    7.5166631    551.69426 
  629000     323.1957   -229.96365   -200.09872   -229.96365    51.043001    1872.7599            0            0   -2153.7666   -1.3417611   -1848.6476     9.213205    7.9788642    7.5225365    552.98851 
  629500    290.46196   -221.54428   -194.70411   -221.54428    58.882282    1873.7385            0            0   -2154.1651   -1.4326398    3993.9563    9.0141226    7.8064539    7.3599867    517.90999 
  630000    316.10204   -234.92041   -205.71097   -234.92041    47.626085    1871.2898            0            0   -2153.8363   -1.3447172   -3184.9072    9.2064488    7.9730132    7.5170201    551.77286 
  630500    331.76413   -239.40672   -208.75002   -239.40672     54.50442      1860.18            0            0   -2154.0911   -1.4010331   -765.66483    9.0814041    7.8647214    7.4149217    529.59383 
  631000    358.27606   -231.82279   -198.71625   -231.82279    56.406733    1865.5311            0            0   -2153.7607   -1.4037125    1035.0979    9.0756222    7.8597141    7.4102008    528.58293 
  631500    330.95451   -229.99484   -199.41295   -229.99484    42.969016    1881.2746            0            0   -2154.2385   -1.3601275   -4521.7384    9.1715468    7.9427872    7.4885228    545.52125 
  632000    338.86635   -236.81755   -205.50456   -236.81755    62.907104    1854.5589            0            0   -2154.2836   -1.4271925    3825.5858    9.0255764    7.8163732    7.3693387    519.88676 
  632500    346.58033   -213.31591   -181.29011   -213.31591    50.648363    1889.9142            0            0   -2153.8785   -1.3206104    1313.6137    9.2621304    8.0212348    7.5624839    561.84508 
  633000    334.37208   -222.25911   -191.36142   -222.25911    40.191437    1891.5919            0            0   -2154.0425   -1.3791968   -3359.1189    9.1290808    7.9060106    7.4538495    537.97867 
  633500    252.35658    -223.7798   -200.46076    -223.7798    47.112278    1882.9458            0            0   -2153.8379    -1.341372   -1381.8567    9.2140957    7.9796356    7.5232638    553.14892 
  634000     272.8851   -228.06122   -202.84524   -228.06122    58.289981    1867.7031            0            0   -2154.0543   -1.3889683    2598.8688    9.1076225    7.8874271    7.4363289    534.19396 
  634500     307.3801   -228.55593   -200.15243   -228.55593    45.866999     1879.755            0            0    -2154.178    -1.388582   -2022.9875    9.1084669    7.8881584    7.4370184    534.34256 
  635000    217.60867   -229.81067   -209.70252   -229.81067    43.398288    1881.0077            0            0   -2154.2167   -1.3381726    -4761.813    9.2214331    7.9859899    7.5292547    554.47142 
  635500    295.21748   -236.28098   -209.00137   -236.28098    82.566861    1835.0694            0            0   -2153.9172   -1.4924665    12806.192    8.8920303    7.7007189    7.2602989    497.14916 
  636000    245.10486   -232.83274    -210.1838   -232.83274    50.960747    1870.3193            0            0   -2154.1128   -1.3652067   -1589.0048    9.1601586    7.9329247    7.4792244    543.49167 
  636500    247.16517   -235.54531   -212.70599   -235.54531    65.584951     1853.174            0            0   -2154.3043   -1.4315079    4297.9898    9.0164978    7.8085109    7.3619261    518.31951 
  637000    308.49416   -236.69923   -208.19279   -236.69923    46.344989    1871.1288            0            0    -2154.173   -1.3493573   -3957.0236    9.1958839    7.9638637    7.5083939    549.87547 
  637500    280.83196   -229.37521    -203.4249   -229.37521    53.900212    1870.6415            0            0   -2153.9169   -1.3801483    356.07479    9.1269824    7.9041933    7.4521362    537.60778 
  638000    320.22017   -234.14053   -204.55054   -234.14053    67.342595    1852.8257            0            0   -2154.3088   -1.4524203    5963.9449    8.9730143    7.7708531     7.326422    510.85658 
  638500    315.50811   -229.28796    -200.1334   -229.28796    38.072131    1886.6711            0            0   -2154.0312   -1.3054586    -6587.396    9.2978264    8.0521484    7.5916295    568.36615 
  639000    317.23943   -226.22097   -196.90643   -226.22097    57.737132    1870.3077            0            0   -2154.2658   -1.4271265    3783.0358    9.0257155    7.8164936    7.3694523    519.91079 
  639500    238.21771   -225.16285   -203.15031   -225.16285    54.002143    1874.3319            0            0   -2153.4969   -1.3855423    1527.3951    9.1151231    7.8939229    7.4424531    535.51486 
  640000    291.53059   -236.57059   -209.63167   -236.57059    56.134163    1861.3814            0            0   -2154.0862   -1.3952476   -175.65759     9.093939    7.8755769    7.4251564    531.78983 
  640500      236.558    -231.8229   -209.96373    -231.8229    54.263128    1867.8973            0            0   -2153.9834   -1.4263872    121.54493    9.0272746    7.8178438    7.3707252    520.18026 
  641000    354.60131   -235.45839   -202.69141   -235.45839    54.849798    1863.7716            0            0   -2154.0798    -1.409729    526.85397    9.0626928    7.8485169     7.399644    526.32704 
  641500    214.21912   -222.66913   -202.87418   -222.66913     53.14441    1878.0239            0            0   -2153.8374    -1.339497    220.80022     9.218393    7.9833571    7.5267725    553.92321 
  642000    344.84399   -225.91695    -194.0516   -225.91695    47.592591    1880.4037            0            0   -2153.9132   -1.3436561   -1893.8253    9.2088716    7.9751114    7.5189983    552.20859 
  642500    276.72653   -231.89466   -206.32371   -231.89466    42.413756    1879.8968            0            0   -2154.2052   -1.3362972   -4965.6783    9.2257449     7.989724    7.5327752    555.24957 
  643000    276.90534   -240.02239   -214.43492   -240.02239    63.636631    1850.3909            0            0   -2154.0499   -1.4324909    3277.1084    9.0144349    7.8067244    7.3602417    517.96382 
  643500    252.93947   -230.61467   -207.24177   -230.61467    45.627382    1877.8907            0            0   -2154.1327   -1.3814446   -2763.5803    9.1241268    7.9017203    7.4498046    537.10333 
  644000    309.94708   -224.20173   -195.56103   -224.20173    53.099206    1876.9674            0            0   -2154.2683   -1.4543276    2724.1303      8.96909    7.7674546    7.3232178    510.18662 
  644500    274.44341   -233.42764   -208.06767   -233.42764     50.83153    1869.7863            0            0   -2154.0455    -1.375041   -1264.2667    9.1382685    7.9139674    7.4613512    539.60461 
  645000    261.83819    -227.7314   -203.53621    -227.7314    67.528645    1858.9849            0            0    -2154.245   -1.4086013    6088.2843    9.0651104    7.8506106     7.401618    526.74837 
  645500    321.71667   -229.16554   -199.43727   -229.16554    44.070905    1880.9124            0            0   -2154.1488   -1.3478698     -3368.17    9.1992654    7.9667922    7.5111549    550.48229 
  646000      307.841    -230.1123   -201.66622    -230.1123    51.721379    1871.9381            0            0   -2153.7718   -1.3856073   -28.596589    9.1149804    7.8937993    7.4423366    535.48971 
  646500    349.90197   -228.45953    -196.1268   -228.45953    52.803975    1872.4882            0            0   -2153.7518   -1.3940002    807.12065    9.0966506    7.8779252    7.4273704    532.26567 
  647000    296.49398   -229.85394   -202.45638   -229.85394    38.413875    1885.9447            0            0   -2154.2125   -1.3401702   -6108.0039    9.2168491    7.9820201    7.5255119    553.64496 
  647500     256.0633   -228.56965   -204.90809   -228.56965    62.377556    1863.1556            0            0   -2154.1028   -1.4983698    6327.7755    8.8803372    7.6905925    7.2507516    495.19048 
  648000    298.14261   -225.99101   -198.44111   -225.99101    48.674991    1879.1074            0            0   -2153.7734   -1.3950946   -357.51516    9.0942714    7.8758648    7.4254278    531.84814 
  648500    230.35243   -229.60283   -208.31709   -229.60283    45.276949    1879.0677            0            0   -2153.9475   -1.4061819   -2367.2982    9.0703065    7.8551105    7.4058606    527.65468 
  649000    303.86969    -226.3984   -198.31929    -226.3984    49.937312    1877.9429            0            0   -2154.2786   -1.4260724    258.97067    9.0279388    7.8184191    7.3712676    520.29509 
  649500    302.94395   -228.73757     -200.744   -228.73757    44.917865    1880.2936            0            0    -2153.949   -1.4185805   -1872.0646    9.0438038    7.8321586    7.3842213    523.04289 
  650000    246.58647   -233.61765    -210.8318   -233.61765    65.462002    1855.1713            0            0    -2154.251    -1.451099    5119.9148     8.975737     7.773211    7.3286451    511.32175 
  650500    237.77267   -236.31787   -214.34646   -236.31787     52.76645    1864.9723            0            0   -2154.0566   -1.4279759   -963.05582    9.0239256    7.8149436    7.3679908    519.60154 
  651000    250.15623   -232.92074   -209.80503   -232.92074    47.953462    1873.3306            0            0   -2154.2048   -1.3684844   -2988.8263    9.1528395    7.9265862    7.4732484    542.18993 
  651500    302.08316   -232.90356   -204.98953   -232.90356    71.267762    1850.0962            0            0   -2154.2675   -1.4613199    7313.7836    8.9547617    7.7550459    7.3115189    507.74542 
  652000     331.7274   -224.40918   -193.75587   -224.40918    39.738976     1889.934            0            0   -2154.0821   -1.3446578   -3873.1692    9.2065844    7.9731306    7.5171309    551.79725 
  652500     285.0221   -227.13879   -200.80129   -227.13879    64.174972    1862.7831            0            0   -2154.0969   -1.4343043    5604.5494    9.0106343     7.803433    7.3571385    517.30896 
  653000    300.32835   -237.30855   -209.55667   -237.30855     57.96034    1859.0138            0            0   -2154.2826   -1.4118705    1345.7846    9.0581083    7.8445466    7.3959008     525.5287 
  653500     252.0108   -227.89396   -204.60688   -227.89396    42.677999    1883.5891            0            0   -2154.1611   -1.3799367   -3731.3131    9.1274488    7.9045972     7.452517     537.6902 
  654000    303.82754   -239.09362   -211.01841   -239.09362    61.596281    1853.5916            0            0   -2154.2816   -1.4331948    2887.5504    9.0129588     7.805446    7.3590365    517.70942 
  654500    342.18438   -229.39212   -197.77254   -229.39212     35.85112    1888.9357            0            0   -2154.1789   -1.3032746   -7101.8829    9.3030171    8.0566437    7.5958676    569.31859 
  655000    306.30652   -230.72242   -202.41814   -230.72242    45.527843    1878.1388            0            0   -2154.3891   -1.3792392   -2830.2491    9.1289873    7.9059296    7.4537732    537.96215 
  655500    406.75483   -219.33568   -181.74945   -219.33568    53.456112    1881.0661            0            0   -2153.8579   -1.4117075    2683.3659     9.058457    7.8448486    7.3961855    525.58938 
  656000    159.47767   -226.42324   -211.68669   -226.42324    45.964381    1881.5853            0            0   -2153.9729   -1.3441592   -2883.8349    9.2077227    7.9741164    7.5180603    552.00194 
  656500    277.44631   -230.70421   -205.06676   -230.70421    69.074929    1854.4496            0            0   -2154.2288   -1.4424379    7488.4956    8.9936659    7.7887379    7.3432839    514.39195 
  657000     233.0239   -232.44492   -210.91232   -232.44492    56.062548    1865.4757            0            0   -2153.9832   -1.4256997    1146.1066    9.0287253    7.8191002    7.3719097    520.43109 
  657500    319.54839   -240.52382   -210.99591   -240.52382    52.734905    1861.0909            0            0   -2154.3496   -1.3960937   -1652.3705    9.0921015    7.8739856    7.4236561    531.46754 
  658000    264.62896   -239.94774   -215.49467   -239.94774    60.793762     1853.673            0            0   -2154.4145   -1.4384377    2549.1476    9.0019952    7.7959512    7.3500847    515.82244 
  658500    272.04945    -237.3962   -212.25744    -237.3962    46.184212     1870.741            0            0   -2154.3215    -1.360443   -4148.9456    9.1708378    7.9421731    7.4879439    545.39474 
  659000     402.9452   -233.14233   -195.90813   -233.14233    55.572894    1865.4644            0            0   -2154.1796   -1.4150606    2021.0874    9.0512963    7.8386473    7.3903388    524.34394 
  659500    371.61177   -231.44407   -197.10524   -231.44407    60.283485    1862.3827            0            0   -2154.1102   -1.4810375    4185.3985    8.9148447    7.7204768    7.2789268    500.98562 
  660000    342.47184    -225.5431   -193.89695    -225.5431    53.214021    1875.3732            0            0   -2154.1304   -1.3727336    1074.2678    9.1433857    7.9183989    7.4655294    540.51161 
  660500    280.13094   -227.91668   -202.03115   -227.91668    52.036391    1874.2653            0            0   -2154.2183   -1.4365685    1382.0553    9.0058979    7.7993311    7.3532713    516.49363 
  661000    360.28086   -232.94295   -199.65115   -232.94295    51.952609    1868.8137            0            0   -2153.7093   -1.4003872   -315.78443    9.0828001    7.8659304    7.4160616     529.8381 
  661500    317.70944   -228.34378    -198.9858   -228.34378    55.593918    1870.1093            0            0    -2154.047   -1.3939053     1190.264    9.0968571     7.878104     7.427539    532.30191 
  662000    241.97598   -224.67973   -202.31991   -224.67973    56.600036    1872.5267            0            0   -2153.8064   -1.4094616    2571.6382    9.0632658    7.8490131    7.4001119    526.42688 
  662500    253.69337   -238.59821   -215.15565   -238.59821    52.975668    1862.1907            0            0   -2153.7646   -1.3870064   -1953.1213    9.1119147    7.8911443    7.4398335    534.94958 
  663000    270.81218   -238.62148   -213.59705   -238.62148    62.858991    1852.7159            0            0   -2154.1964   -1.4290021    2808.8428     9.021765    7.8130724    7.3662267     519.2284 
  663500    288.58036   -233.65901   -206.99271   -233.65901    48.275797    1871.9984            0            0   -2153.9332   -1.3797803   -3131.4213    9.1277938     7.904896    7.4527987    537.75118 
  664000    301.00506   -223.32072   -195.50632   -223.32072    56.709092    1874.0703            0            0   -2154.1001   -1.4302374    2956.1379    9.0191669    7.8108224    7.3641054    518.77995 
  664500     304.9245   -228.32256   -200.14598   -228.32256    48.833231    1876.9144            0            0   -2154.0702   -1.4054308   -2029.4982    9.0719219    7.8565096    7.4071796    527.93666 
  665000    287.64466   -230.34643    -203.7666   -230.34643    64.152811    1859.8131            0            0   -2154.3123   -1.4361599    5880.9633    9.0067519    7.8000707    7.3539686    516.64057 
  665500    279.24055    -239.5078   -213.70455    -239.5078    60.695254    1854.0007            0            0   -2154.2038   -1.4313267    2824.8415    9.0168783    7.8088404    7.3622367    518.38512 
  666000      360.769   -228.25892   -194.92202   -228.25892    41.216146    1884.7817            0            0   -2154.2568   -1.3350114   -4213.6732    9.2287058    7.9922883    7.5351929    555.78435 
  666500    321.38542   -224.55444   -194.85678   -224.55444     57.02996     1872.431            0            0   -2154.0154   -1.4560641    3589.9902    8.9655231    7.7643655    7.3203055    509.57816 
  667000    225.74777   -233.60676   -212.74651   -233.60676    51.853257    1868.7502            0            0   -2154.2102   -1.3991386   -785.61464     9.085501    7.8682694    7.4182668    530.31089 
  667500    276.42277   -227.35011   -201.80724   -227.35011    56.755705    1869.7837            0            0   -2153.8895   -1.3950041    2140.2584    9.0944681    7.8760351    7.4255884    531.88264 
  668000    272.50905   -223.67382    -198.4926   -223.67382    56.348927    1874.0865            0            0   -2154.1092   -1.4187983    2654.5856    9.0433411    7.8317578    7.3838435    522.96261 
  668500    202.40522   -232.96621   -214.26293   -232.96621    58.428914    1862.9613            0            0   -2154.3565   -1.4015295    1847.7803    9.0803318    7.8637927    7.4140462    529.40624 
  669000    259.72763   -230.77008   -206.76992   -230.77008    52.892005    1870.2995            0            0   -2153.9616   -1.3964149   -141.05972    9.0914042    7.8733817    7.4230868    531.34526 
  669500    277.31417   -224.27133   -198.64608   -224.27133    44.339029    1885.2774            0            0   -2153.8878    -1.372953   -3258.6473    9.1428987    7.9179772    7.4651317    540.42524 
  670000    295.13279   -226.73696   -199.46518   -226.73696    45.022316    1882.4185            0            0   -2154.1777   -1.3383287   -2770.2698    9.2210746    7.9856795     7.528962    554.40676 
  670500    397.99806   -233.67435   -196.89729   -233.67435    77.936536     1842.825            0            0   -2154.4359   -1.4819814    11012.038    8.9129516    7.7188373    7.2773811    500.66652 
  671000    264.78004   -229.73138   -205.26435   -229.73138    41.523356    1882.6123            0            0    -2153.867   -1.3520213   -4856.0603      9.18984    7.9586295    7.5034591    548.79198 
  671500    287.73135   -236.12467   -209.53682   -236.12467    65.362177    1852.6743            0            0   -2154.1611   -1.4146868    3841.0887    9.0520934    7.8393376    7.3909897    524.48248 
  672000    339.10142   -219.48111    -188.1464   -219.48111    34.480587    1899.5658            0            0   -2153.5275   -1.3168398   -5985.1866    9.2709624    8.0288835    7.5696951    563.45387 
  672500     250.5061   -233.07195   -209.92391   -233.07195    57.625205    1863.2894            0            0   -2153.9866   -1.4125232    1736.6715    9.0567128    7.8433381    7.3947614    525.28584 
  673000    230.58008   -227.60609   -206.29931   -227.60609    56.985007    1869.4717            0            0   -2154.0628   -1.3989842    2036.2381    9.0858354    7.8685589    7.4185398    530.36945 
  673500    268.78565   -230.14312   -205.30595   -230.14312    47.553194    1876.1966            0            0   -2153.8929   -1.3873138   -2045.1789    9.1112417    7.8905614    7.4392839    534.83104 
  674000    303.22722   -230.07754    -202.0578   -230.07754    49.158925    1874.7238            0            0   -2153.9603   -1.4133471   -682.50142    9.0549527    7.8418138    7.3933243    524.97965 
  674500    362.71676   -226.78226   -193.26538   -226.78226    52.112463     1875.147            0            0   -2154.0417   -1.3861032    289.86392    9.1138934    7.8928579    7.4414491    535.29815 
  675000    423.22978   -234.69764   -195.58905   -234.69764    58.125089    1861.2962            0            0   -2154.1189   -1.4053749    2739.4364    9.0720424    7.8566139    7.4072779    527.95769 
  675500    275.59198   -231.50986   -206.04375   -231.50986    39.485328    1883.0463            0            0   -2154.0414   -1.3180934   -6249.2168    9.2680223    8.0263373    7.5672945    562.91797 
  676000    302.86713   -230.66155   -202.67508   -230.66155    55.029818    1868.3766            0            0   -2154.0679   -1.4104676    1184.3875    9.0611106    7.8471467    7.3983522    526.05142 
  676500    324.54407   -225.04451   -195.05498   -225.04451    48.504684     1880.273            0            0   -2153.8222   -1.3516359   -1026.2836    9.1907135     7.959386    7.5041723    548.94848 
  677000    255.63184   -233.35267   -209.73098   -233.35267    60.121909    1860.5599            0            0   -2154.0345   -1.4337304    3056.9099    9.0118365    7.8044741    7.3581201    517.51604 
  677500    258.08792   -237.96944    -214.1208   -237.96944    51.188725     1864.998            0            0   -2154.1561    -1.395282   -1614.6807    9.0938643    7.8755122    7.4250954    531.77671 
  678000    267.08382   -230.03285   -205.35294   -230.03285    47.852508    1876.1092            0            0   -2153.9945   -1.3818853   -2296.4169    9.1231567    7.9008802    7.4490125    536.93204 
  678500    295.22272   -227.19101   -199.91092   -227.19101    54.161589    1872.7559            0            0   -2154.1085   -1.3769173    476.13567    9.1341158     7.910371    7.4579605     538.8693 
  679000    278.13899   -224.74326   -199.04179   -224.74326    71.303445    1857.9464            0            0   -2153.9931   -1.4098904    7837.8127    9.0623468    7.8482173    7.3993616    526.26677 
  679500    294.53292   -231.97154   -204.75519   -231.97154    48.278144    1874.0209            0            0   -2154.2706   -1.3901013   -2431.5944    9.1051475    7.8852837    7.4343081    533.75857 
  680000    298.89679   -232.39929    -204.7797   -232.39929    66.569757     1855.289            0            0    -2154.258   -1.4485027    5111.1171    8.9810964    7.7778524     7.333021    512.23822 
  680500    250.54111   -232.97028     -209.819   -232.97028    45.106626    1876.1764            0            0   -2154.2533   -1.3485708   -4323.9986    9.1976712    7.9654116    7.5098533    550.19616 
  681000    359.31401   -234.16734   -200.96489   -234.16734    65.258707     1854.741            0            0    -2154.167   -1.4252979    5264.6728    9.0295738     7.819835    7.3726025    520.57782 
  681500    244.12138   -235.40638   -212.84832   -235.40638    53.399664    1865.3641            0            0   -2154.1701   -1.3767442   -916.90149    9.1344986    7.9107025    7.4582731    538.93706 
  682000    295.47087   -229.03967   -201.73666   -229.03967    52.871821    1872.3074            0            0   -2154.2189   -1.3887093    181.18067    9.1081887    7.8879175    7.4367912    534.29359 
  682500    315.00646   -231.57029   -202.46208   -231.57029    44.353606    1878.1699            0            0   -2154.0938   -1.3481379     -3624.21    9.1986556    7.9662641     7.510657    550.37284 
  683000    330.22437   -229.86064   -199.34622   -229.86064    43.675632    1880.5774            0            0   -2154.1137   -1.3551856   -3728.8388     9.182682    7.9524305    7.4976146    547.51061 
  683500    353.05327    -239.2218   -206.59787    -239.2218    67.873653    1847.0232            0            0   -2154.1186   -1.4225706    5808.3678    9.0353403     7.824829    7.3773109    521.57583 
  684000    327.35608   -220.60983   -190.36046   -220.60983    24.684858    1908.7965            0            0   -2154.0911   -1.2774785   -10396.577    9.3652189     8.110512    7.6466551    580.81484 
  684500    330.77966   -238.93378   -208.36805   -238.93378     69.89146    1845.4909            0            0   -2154.3161    -1.446451    6896.6884    8.9853408    7.7815281    7.3364865     512.9648 
  685000    320.65936   -233.41911   -203.78855   -233.41911    52.007183    1868.7159            0            0   -2154.1422   -1.3801139   -1160.0567    9.1270582     7.904259    7.4521981    537.62118 
  685500    280.75057   -233.71313   -207.77034   -233.71313    54.667084    1865.7015            0            0   -2154.0817   -1.3752611   -65.866447     9.137781    7.9135452    7.4609532    539.51826 
  686000    384.16334   -230.69028   -195.19162   -230.69028    52.394247    1871.1196            0            0   -2154.2041   -1.4092504    794.40111    9.0637184    7.8494051    7.4004815    526.50576 
  686500    315.20884   -221.66728   -192.54037   -221.66728    38.970265      1893.18            0            0   -2153.8175   -1.3372845    -3937.201     9.223474    7.9877574    7.5309211    554.83965 
  687000    268.09383   -221.55458   -196.78134   -221.55458    60.595909    1871.6755            0            0    -2153.826   -1.4213912    5403.1526    9.0378388    7.8269927    7.3793509    522.00863 
  687500    358.71975   -228.57422   -195.42668   -228.57422     41.36196    1883.6578            0            0    -2153.594   -1.3775679   -3516.4826    9.1326777    7.9091255    7.4567863    538.61482 
  688000    295.85628   -226.62604   -199.28741   -226.62604    52.309435    1875.1547            0            0   -2154.0902   -1.3729031    652.23533    9.1430094    7.9180731    7.4652221    540.44488 
  688500    248.46961   -221.26652   -198.30666   -221.26652    60.056461    1872.6896            0            0   -2154.0126   -1.4122915     5090.727    9.0572082    7.8437671    7.3951659    525.37204 
  689000    296.62712    -227.5433   -200.13344    -227.5433    39.701207    1886.2422            0            0   -2153.4867    -1.292991   -5645.9926    9.3276154    8.0779464     7.615952    573.84658 
  689500     317.3302   -242.04351   -212.72058   -242.04351    56.019283    1856.1124            0            0   -2154.1752   -1.4312212    -21.95747    9.0170999    7.8090323    7.3624177    518.42335 
  690000    355.24253   -231.93572    -199.1095   -231.93572    47.692737    1874.4619            0            0   -2154.0904   -1.3623326   -2235.4854    9.1665959    7.9384995    7.4844804    544.63828 
  690500    373.31441   -236.09809   -201.60193   -236.09809    58.551894    1859.6614            0            0   -2154.3114   -1.4121418    1950.4441    9.0575282    7.8440442    7.3954272    525.42773 
  691000    183.30613   -230.47582   -213.53739   -230.47582    57.517129    1866.2949            0            0   -2154.2879   -1.3947465    1368.3203    9.0950279    7.8765199    7.4260455    531.98088 
  691500    292.67731   -233.64602   -206.60114   -233.64602    52.809125    1867.6828            0            0   -2154.1379   -1.3896427   -277.28107    9.1061489    7.8861509    7.4351257     533.9347 
  692000    325.52052    -229.2661   -199.18634    -229.2661     51.81027    1872.4219            0            0   -2153.4983   -1.3512229   -563.92792    9.1916496    7.9601967    7.5049366    549.11625 
  692500    353.56794   -231.51126   -198.83978   -231.51126    45.224988    1877.4074            0            0   -2154.1437    -1.390116    -2768.317    9.1051153    7.8852558    7.4342818    533.75291 
  693000    218.03466   -230.86069   -210.71318   -230.86069    52.026256    1871.0703            0            0   -2153.9572   -1.3695917   -1045.8416    9.1503721    7.9244494    7.4712338    541.75157 
  693500    285.22295   -233.73992   -207.38386   -233.73992    56.451479    1864.0076            0            0    -2154.199   -1.4041502    1121.3521     9.074679    7.8588973    7.4094307    528.41815 
  694000    275.80462   -239.08754   -213.60178   -239.08754    61.461184    1853.6609            0            0   -2154.2096   -1.4036085    1746.7645    9.0758464    7.8599082    7.4103839     528.6221 
  694500    348.62486   -227.64285   -195.42813   -227.64285    53.733763    1872.3285            0            0   -2153.7051   -1.3922215    878.56686    9.1005229    7.8812787    7.4305321    532.94568 
  695000    260.61724   -224.31422   -200.23185   -224.31422    50.733971    1878.9782            0            0   -2154.0264   -1.3938624    58.351812    9.0969505    7.8781849    7.4276153     532.3183 
  695500    301.01008    -233.3487   -205.53383    -233.3487    46.676612    1874.1881            0            0   -2154.2134   -1.4015013   -2560.6707    9.0803927    7.8638454    7.4140959     529.4169 
  696000    252.48011   -240.77134   -217.44088   -240.77134    55.853061    1857.3267            0            0   -2153.9511   -1.4251461   -664.19008    9.0298943    7.8201126    7.3728642    520.63326 
  696500    298.31064   -230.59803    -203.0326   -230.59803     60.80666    1862.7515            0            0   -2154.1561   -1.3901359    2878.4012    9.1050718    7.8852182    7.4342463    533.74526 
  697000    257.60041     -223.457    -199.6534     -223.457    42.461109    1888.2556            0            0   -2154.1737   -1.3556706   -3890.2421    9.1815866    7.9514819    7.4967203     547.3147 
  697500    283.83355   -227.87026   -201.64259   -227.87026      47.6578    1878.1837            0            0   -2153.7118   -1.3975839   -1347.2502    9.0888688    7.8711859    7.4210166    530.90083 
  698000    295.57511   -232.36888   -205.05623   -232.36888    59.990786    1861.9472            0            0   -2154.3069   -1.3939087    2316.3722    9.0968497    7.8780977     7.427533    532.30062 
  698500    342.67908    -229.5473     -197.882    -229.5473    47.179322    1877.4934            0            0   -2154.2201   -1.3724805   -1563.2883    9.1439477    7.9188857    7.4659883    540.61129 
  699000    253.66965   -237.52498   -214.08461   -237.52498    62.233936    1854.2723            0            0   -2154.0312   -1.4587188    3293.6035     8.960081    7.7596526     7.315862    508.65078 
  699500    306.07662   -230.61401   -202.33097   -230.61401    41.701266    1881.9676            0            0   -2154.2829   -1.3752821   -4602.3322    9.1377345    7.9135049    7.4609152    539.51003 
  700000    316.00628   -235.76106   -206.56046   -235.76106    63.848737    1854.7606            0            0   -2154.3704   -1.4250197    4452.1919    9.0301613    7.8203438    7.3730822    520.67944 
  700500    307.75021    -232.7204    -204.2827    -232.7204     52.74137    1868.6932            0            0    -2154.155   -1.4070263   -174.91763    9.0684918     7.853539    7.4043789    527.33804 
  701000    284.37122   -233.47269   -207.19533   -233.47269    52.111611    1868.6771            0            0   -2154.2614   -1.4044052   -346.69797    9.0741298    7.8584217    7.4089823    528.32222 
  701500    249.52359    -236.3171   -213.25984    -236.3171    56.108503    1861.7935            0            0   -2154.2191   -1.4020476    194.57941    9.0792132    7.8628239    7.4131328    529.21061 
  702000    276.13756    -227.5224   -202.00587    -227.5224     44.82126    1881.7383            0            0    -2154.082   -1.3251211   -3330.5378     9.251609    8.0121231    7.5538932    559.93256 
  702500    386.84376   -226.05434     -190.308   -226.05434    57.197232    1870.6917            0            0   -2153.9433   -1.3793376    3479.1266    9.1287702    7.9057416    7.4535959    537.92377 
  703000    322.59188    -226.8973   -197.08816    -226.8973    42.633802    1884.4321            0            0   -2153.9632   -1.3353941   -3426.6418    9.2278242    7.9915248     7.534473    555.62509 
  703500    296.53451   -232.75192   -205.35062   -232.75192    49.539471     1871.872            0            0   -2154.1634   -1.3629347   -1465.7107    9.1652458    7.9373304    7.4833781    544.39767 
  704000     327.3551   -229.93136   -199.68208   -229.93136    63.020639    1861.2112            0            0   -2154.1632   -1.3795482    3742.0905    9.1283056    7.9053392    7.4532166    537.84164 
  704500    272.73901   -229.02057   -203.81809   -229.02057    38.542073    1886.4482            0            0   -2154.0109   -1.3205862   -5853.8804     9.262187    8.0212838    7.5625301    561.85538 
  705000     331.9775   -231.85485   -201.17844   -231.85485    64.235846     1857.737            0            0   -2153.8277   -1.4380689    5307.7291    9.0027647    7.7966177    7.3507131    515.95474 
  705500     342.3257   -230.43518   -198.80254   -230.43518     43.20434    1880.3971            0            0   -2154.0366   -1.4040053   -3593.0734    9.0749912    7.8591676    7.4096856    528.47268 
  706000    254.55506   -223.49609    -199.9739   -223.49609    41.538443    1888.5827            0            0   -2153.6172   -1.3567496   -3650.0336    9.1791521    7.9493735    7.4947324    546.87945 
  706500    335.82285   -228.73535    -197.7036   -228.73535    56.779051    1868.4838            0            0   -2153.9982   -1.4208315    2377.2441    9.0390254    7.8280204    7.3803197    522.21426 
  707000    307.89869   -229.31634   -200.86493   -229.31634    47.124554    1877.7537            0            0   -2154.1946   -1.3728891   -2895.9006    9.1430405       7.9181    7.4652476     540.4504 
  707500    249.76876   -231.42641    -208.3465   -231.42641    56.624107    1866.0438            0            0   -2154.0943   -1.4176428    1689.3017    9.0457974    7.8338851    7.3858491    523.38887 
  708000    305.72532    -233.3669   -205.11632    -233.3669     44.26246    1876.6814            0            0   -2154.3107   -1.4122581    -3592.771    9.0572796    7.8438289    7.3952242    525.38447 
  708500    293.23604   -230.35081    -203.2543   -230.35081    46.333538    1877.1884            0            0   -2153.8728   -1.3525884   -2596.1767    9.1885556    7.9575172    7.5024104    548.56191 
  709000     273.4382   -231.39549   -206.12841   -231.39549    57.996653     1864.898            0            0   -2154.2902   -1.4239072    2336.5938    9.0325125      7.82238    7.3750019    521.08625 
  709500    346.59587   -235.01653    -202.9893   -235.01653    49.925003     1869.062            0            0   -2154.0035       -1.369   -2240.3332    9.1516903    7.9255909      7.47231    541.98573 
  710000    317.27385   -233.86557   -204.54785   -233.86557    45.948856    1874.2478            0            0   -2154.0622   -1.3406179   -3903.6477     9.215823    7.9811315    7.5246741    553.46006 
  710500    315.87355   -235.62839   -206.44006   -235.62839    63.193935    1855.4656            0            0   -2154.2879    -1.427686     3934.106    9.0245364    7.8154725    7.3684895    519.70705 
  711000    254.07289   -233.43391   -209.95627   -233.43391    42.158675    1878.2235            0            0   -2153.8161   -1.3204772   -5722.5179    9.2624418    8.0215045    7.5627381    561.90176 
  711500    300.21067   -235.09159   -207.35059   -235.09159     44.99012    1874.0157            0            0   -2154.0974   -1.3792496   -4175.8566    9.1289643    7.9059097    7.4537544    537.95808 
  712000    280.22805   -221.61582   -195.72132   -221.61582    56.797166    1874.9312            0            0   -2153.3442   -1.3968106    2899.2849    9.0905458    7.8726383    7.4223858    531.19476 
  712500    346.24202   -235.02483    -203.0303   -235.02483    49.841156    1869.2755            0            0   -2154.1415   -1.3620001   -1808.8883    9.1673417    7.9391455    7.4850894    544.77124 
  713000    222.15561   -227.77161    -207.2433   -227.77161    53.123272    1873.2773            0            0   -2154.1722   -1.4020272    560.22246    9.0792572    7.8628621    7.4131688    529.21831 
  713500    288.91544   -229.69234   -202.99507   -229.69234    59.869727    1864.6098            0            0   -2154.1719   -1.4168969    3189.4708    9.0473844    7.8352595    7.3871448    523.66439 
  714000    332.71122   -218.55802   -187.81381   -218.55802    36.900983    1898.6137            0            0   -2154.0727   -1.3139249   -4150.8822    9.2778131    8.0348164    7.5752887    564.70388 
  714500    282.60937   -229.73726   -203.62271   -229.73726    68.880348    1855.4705            0            0   -2154.0881   -1.4339759    6974.5851     9.011322    7.8040285    7.3577001    517.42742 
  715000    252.14628   -233.27115   -209.97154   -233.27115    50.968974    1869.8131            0            0   -2154.0532   -1.3774207   -1241.3223    9.1330028    7.9094071    7.4570518    538.67235 
  715500    240.14726   -228.79076   -206.59993   -228.79076    65.813261     1859.553            0            0    -2154.157   -1.4365951    5144.2628    9.0058423     7.799283    7.3532259    516.48406 
  716000    290.65247   -229.83013   -202.97236   -229.83013    47.820794    1876.1541            0            0    -2153.805   -1.3639289   -1657.7839    9.1630182    7.9354012    7.4815592    544.00082 
  716500    442.67584   -225.32606   -184.42055   -225.32606    54.972556      1873.77            0            0   -2154.0686   -1.4015564    2475.4422    9.0802736    7.8637423    7.4139987    529.39607 
  717000    311.91038    -230.8014   -201.97929    -230.8014    56.321909    1866.8095            0            0   -2153.9328   -1.3696829    1259.4769    9.1501692    7.9242736    7.4710681    541.71552 
  717500    255.83947   -227.53714   -203.89626   -227.53714    47.348994    1879.0926            0            0   -2153.9788   -1.3617325   -2382.0985    9.1679422    7.9396655    7.4855797     544.8783 
  718000    340.96079    -226.8043   -195.29778    -226.8043    49.061377    1878.2092            0            0   -2154.0748   -1.3747276   -1075.7996    9.1389628    7.9145686    7.4619181    539.72761 
  718500    282.96165   -231.14133   -204.99423   -231.14133    71.409133    1851.7443            0            0   -2154.2948   -1.4291179    8207.9817    9.0215213    7.8128614    7.3660277    519.18633 
  719000    242.13482   -227.34456   -204.97007   -227.34456    41.392803    1885.0837            0            0   -2153.8211   -1.3212613   -5419.9633    9.2606092    8.0199174    7.5612418     561.5683 
  719500    357.84726   -225.75084   -192.68393   -225.75084    61.088953     1867.205            0            0   -2154.0448   -1.4335069    5323.1443    9.0123047    7.8048796    7.3585024    517.59672 
  720000    363.73676   -236.48931   -202.87817   -236.48931    49.583386    1868.1754            0            0   -2154.2481   -1.3680509   -1556.6904    9.1538062    7.9274234    7.4740377    542.36175 
  720500    283.81928   -229.37703   -203.15068   -229.37703    51.165999    1873.5475            0            0   -2154.0905   -1.4178128    36.185367    9.0454359     7.833572    7.3855539    523.32612 
  721000    396.68732   -230.74954    -194.0936   -230.74954     58.77819    1864.4003            0            0    -2153.928   -1.4075405    3369.7653    9.0673873    7.8525824     7.403477    527.14538 
  721500    280.08574   -224.14456   -198.26321   -224.14456    46.657992    1883.0721            0            0   -2153.8747   -1.3830957   -894.50566    9.1204945    7.8985746    7.4468388    536.46212 
  722000    289.35628   -226.45848   -199.72048   -226.45848      41.3548    1886.3758            0            0    -2154.189   -1.3873577   -3752.0402    9.1111454    7.8904781    7.4392054     534.8141 
  722500    243.53008    -221.4351   -198.93167    -221.4351    39.527709    1892.6947            0            0   -2153.6575   -1.3043695    -4189.682    9.3004133    8.0543888    7.5937417    568.84069 
  723000    312.97604    -223.4813   -194.56072    -223.4813    45.233191    1884.9856            0            0   -2153.7001   -1.3460735    -2163.996    9.2033558    7.9703345    7.5144946    551.21692 
  723500    288.27961   -228.44929   -201.81078   -228.44929    54.695718    1870.6796            0            0   -2153.8246    -1.418274    2098.2682    9.0444553    7.8327228    7.3847532    523.15594 
  724000    346.23656   -238.54424   -206.55021   -238.54424    51.890972    1863.9113            0            0   -2154.3465   -1.4108585    -1113.534    9.0602736    7.8464218    7.3976688    525.90566 
  724500    358.82809   -219.28441   -186.12686   -219.28441    43.161089    1891.5889            0            0   -2154.0344    -1.434907   -420.57787    9.0093726    7.8023402    7.3561083    517.09168 
  725000    262.68065   -212.64246   -188.36943   -212.64246    46.495867    1895.0592            0            0   -2154.1976   -1.4591485    1619.8937    8.9592013    7.7588907    7.3151438    508.50098 
  725500    384.13214   -232.34055   -196.84478   -232.34055    60.157418    1861.3097            0            0   -2153.8077   -1.4192858    3541.9333    9.0423056    7.8308611     7.382998      522.783 
  726000    287.10873   -233.53676   -207.00645   -233.53676    48.986054    1871.7308            0            0   -2154.2536   -1.3524554   -2791.3894    9.1888568    7.9577781    7.5026563    548.61586 
  726500    291.64781     -233.379   -206.42926     -233.379    72.866614    1847.9251            0            0   -2154.1707   -1.4858878    8966.2737    8.9051341    7.7120671    7.2709981    499.35028 
  727000    272.37028    -233.3627   -208.19429    -233.3627     38.60884    1882.0892            0            0   -2154.0608   -1.3624286   -6985.3352    9.1663804     7.938313    7.4843045    544.59988 
  727500    348.42179   -233.40369   -201.20774   -233.40369    51.973722     1868.528            0            0   -2153.9054   -1.3993707   -120.29549    9.0849987    7.8678344    7.4178567    530.22294 
  728000    262.15935   -224.44538   -200.22051   -224.44538    50.919523    1878.8952            0            0   -2154.2601   -1.4495854    1911.3843    8.9788599    7.7759155    7.3311949    511.85564 
  728500    258.93395   -224.00222   -200.07539   -224.00222     32.70336    1897.0669            0            0   -2153.7725   -1.2972085   -7292.8817    9.3174957    8.0691825    7.6076894    571.98088 
  729000    348.04705   -235.03623    -202.8749   -235.03623     58.75267    1860.5131            0            0    -2154.302   -1.4117614    2618.7278    9.0583416    7.8447486    7.3960913     525.5693 
  729500    370.60712   -231.33297   -197.08698   -231.33297    55.040069    1867.5431            0            0   -2153.9161   -1.4073367    1433.2013     9.067825    7.8529615    7.4038345    527.22173 
  730000    257.72693   -228.24431   -204.42902   -228.24431    40.492443    1885.2691            0            0   -2154.0059   -1.3335259   -4767.4141    9.2321314    7.9952549    7.5379898    556.40347 
  730500    263.82746   -239.13263   -214.75362   -239.13263    55.750915    1859.3551            0            0   -2154.2386   -1.3868735   -851.21851    9.1122056    7.8913962     7.440071    535.00081 
  731000    309.42869   -230.27745   -201.68466   -230.27745    63.338552    1860.5619            0            0   -2154.1779   -1.4094515    4949.2839    9.0632873    7.8490318    7.4001295    526.43063 
  731500    250.29026   -238.75736   -215.62926   -238.75736    45.914572    1869.4896            0            0   -2154.1615   -1.3621135    -4318.152    9.1670872    7.9389251    7.4848816    544.72586 
  732000     355.1997   -229.68569   -196.86342   -229.68569     54.44404    1869.9128            0            0   -2154.0425   -1.4111961    1555.7764     9.059551     7.845796    7.3970788    525.77984 
  732500    291.76476   -218.68146   -191.72091   -218.68146     38.45825    1896.9836            0            0   -2154.1233   -1.2920581   -4878.2162    9.3298597      8.07989    7.6177845    574.26089 
  733000    269.76132   -234.76048   -209.83315   -234.76048    56.052897    1863.5197            0            0    -2154.333   -1.4307808    1271.5992    9.0180249    7.8098334    7.3631729    518.58291 
  733500    269.55938   -230.26715   -205.35849   -230.26715    57.827293    1865.9625            0            0   -2154.0569   -1.4132632    2396.8924    9.0551319     7.841969    7.3934706    525.01081 
  734000    290.46088   -233.52029   -206.68022   -233.52029    48.204955    1872.4145            0            0   -2154.1398   -1.4026272   -1565.2865    9.0779623    7.8617407    7.4121115    528.99192 
  734500    279.23759   -226.86224   -201.05926   -226.86224    49.599343    1877.5149            0            0   -2153.9764   -1.3923398   -250.93297    9.1002652    7.8810555    7.4303217    532.90041 
  735000    323.43234   -230.87436   -200.98755   -230.87436    60.780227    1862.4671            0            0   -2154.1217   -1.4376329    4347.1006    9.0036747    7.7974058    7.3514561    516.11122 
  735500     276.4418   -231.42645   -205.88181   -231.42645    41.326308    1881.4098            0            0   -2154.1626   -1.3150575   -4949.2776    9.2751488     8.032509    7.5731133    564.21751 
  736000    312.54299   -223.63705   -194.75648   -223.63705    57.511116     1872.841            0            0   -2153.9891   -1.4189681    3139.0849    9.0429803    7.8314454    7.3835489    522.90002 
  736500    346.79796   -226.20601   -194.16011   -226.20601    51.655231    1876.1779            0            0   -2154.0391    -1.385631    538.59579    9.1149286    7.8937544    7.4422943    535.48057 
  737000    357.38174    -231.1184    -198.0945    -231.1184    49.450508    1873.5484            0            0   -2154.1173   -1.3929061   -581.41911    9.0990318    7.8799874    7.4293147    532.68376 
  737500    275.83191   -222.66768   -197.17941   -222.66768    51.369923    1879.7644            0            0    -2153.802   -1.4054261     1091.461    9.0719321    7.8565184    7.4071879    527.93844 
  738000      312.634    -220.7389   -191.84992    -220.7389    48.875052    1884.6749            0            0   -2154.2889   -1.4491175    1437.3697    8.9798261    7.7767523    7.3319838     512.0209 
  738500     275.9074   -239.85438   -214.35912   -239.85438    54.443706    1860.0024            0            0   -2154.3005   -1.4141359   -683.39265    9.0532689    7.8403555    7.3919494    524.68683 
  739000    266.74228   -231.74362   -207.09527   -231.74362    52.935198    1869.5012            0            0     -2154.18   -1.3936679   -89.582771    9.0973736    7.8785513    7.4279607    532.39258 
  739500    388.79167   -235.48343   -199.55709   -235.48343    63.821751    1854.7439            0            0    -2154.049   -1.4807972    6068.1294    8.9153269    7.7208944    7.2793205    501.06692 
  740000    313.58138   -237.29309   -208.31656   -237.29309    50.846663    1866.0469            0            0   -2154.1867   -1.3903453   -1877.2566    9.1046147    7.8848223    7.4338731    533.66488 
  740500    319.75511   -225.69698   -196.14997   -225.69698    52.381855    1876.0047            0            0   -2154.0835   -1.4211951    1859.6289    9.0382544    7.8273527    7.3796902    522.08065 
  741000     202.8758   -235.60214   -216.85538   -235.60214    59.997491    1858.7963            0            0    -2154.396    -1.434645    2083.4776    9.0099209    7.8028151     7.356556     517.1861 
  741500    253.80495   -231.44101   -207.98814   -231.44101    59.644277    1863.0375            0            0   -2154.1228   -1.3984275    2386.5059    9.0870409    7.8696029    7.4195241    530.58058 
  742000    313.82319   -230.88559   -201.88673   -230.88559     56.85167    1866.2497            0            0   -2153.9869   -1.4536253    1939.7601    8.9705343    7.7687053    7.3243971    510.43311 
  742500    312.79836   -224.44561   -195.54144   -224.44561    40.548889     1889.099            0            0   -2154.0935   -1.3827796   -4032.8482    9.1211896    7.8991765    7.4474063    536.58478 
  743000    274.51157   -228.05631   -202.69004   -228.05631    37.226927    1888.8232            0            0   -2154.1065    -1.361796   -5846.0093    9.1677997    7.9395421    7.4854633    544.85289 
  743500    322.87843   -235.09196   -205.25634   -235.09196    66.862281     1852.335            0            0   -2154.2892   -1.4787114    6980.9622    8.9195168    7.7245229    7.2827415    501.77369 
  744000    392.69726    -221.4096   -185.12236    -221.4096    46.796981    1884.8191            0            0   -2153.0257   -1.3864688    122.68766    9.1130921     7.892164    7.4407948    535.15698 
  744500    270.74094    -236.3006   -211.28276    -236.3006    57.506694    1860.4729            0            0   -2154.2802   -1.4267182    1181.7913    9.0265764    7.8172392    7.3701551    520.05957 
  745000    240.55601   -230.37592   -208.14732   -230.37592    59.443732    1864.3954            0            0    -2154.215   -1.4144675    2546.2495    9.0525614    7.8397428    7.3913718    524.56383 
  745500    274.44279   -226.83406   -201.47415   -226.83406    58.221883     1869.001            0            0    -2154.057   -1.4700894    4351.6599    8.9369202    7.7395947    7.2969514    504.71656 
  746000     352.5328   -227.91157   -195.33574   -227.91157    39.857242    1886.5747            0            0   -2154.3435    -1.395181   -4797.4591    9.0940837    7.8757022    7.4252745     531.8152 
  746500    358.57442   -233.27866   -200.14455   -233.27866    63.701745    1857.2978            0            0   -2154.2783   -1.4299945    5200.6438    9.0196776    7.8112647    7.3645223    518.86807 
  747000    240.79875   -231.64431   -209.39328   -231.64431    47.712816    1874.8077            0            0   -2154.1648   -1.4085457   -2827.2359    9.0652297     7.850714    7.4017154    526.76917 
  747500    271.65682   -223.04838    -197.9459   -223.04838    36.417578    1894.4926            0            0   -2153.9586   -1.2984113   -6197.2283    9.3146176      8.06669    7.6053394      571.451 
  748000    299.43544   -238.51829   -210.84892   -238.51829    71.574442    1843.9293            0            0   -2154.0221   -1.4567801    7180.0456     8.964054    7.7630933     7.319106    509.32771 
  748500    313.52948   -234.41616   -205.44444   -234.41616    46.183355    1873.7302            0            0   -2154.3297   -1.3981096   -2497.5054    9.0877296    7.8701994    7.4200864    530.70123 
  749000    340.97646   -229.64461   -198.13664   -229.64461    63.140586    1861.1719            0            0   -2153.9571   -1.4317328    4965.6326    9.0160256     7.808102    7.3615405    518.23808 
  749500    356.42395   -225.10373   -192.16834   -225.10373    38.959169    1889.8811            0            0    -2153.944   -1.3534776   -4732.2452    9.1865428    7.9557741     7.500767     548.2015 
  750000    325.04864   -228.94029   -198.90414   -228.94029    70.695008    1854.4216            0            0   -2154.0569   -1.4503303     8553.097    8.9773225    7.7745841    7.3299396    511.59275 
  750500    280.40681   -233.30501   -207.39399   -233.30501    47.974233    1872.7497            0            0   -2154.0289   -1.3496066   -3482.4824    9.1953175    7.9633732    7.5079315    549.77387 
  751000    312.94876   -227.20994   -198.29187   -227.20994    52.623934    1874.4244            0            0   -2154.2583   -1.4291904    569.10302    9.0213687    7.8127292    7.3659031    519.15998 
  751500    264.48667   -230.39513   -205.95521   -230.39513    43.954164    1879.6723            0            0   -2154.0216   -1.3681996   -3988.2633    9.1534746    7.9271362    7.4737669     542.3028 
  752000    302.30253   -226.82192   -198.88762   -226.82192    52.297153    1875.0111            0            0   -2154.1301   -1.4475316    1351.5186    8.9831044    7.7795914    7.3346605    512.58188 
  752500    325.06287    -236.6041   -206.56663    -236.6041    47.463456    1870.2731            0            0   -2154.3406   -1.4145441   -2403.1143    9.0523979    7.8396012    7.3912383    524.53541 
  753000    259.10421   -220.50948   -196.56693   -220.50948    32.262542    1901.1972            0            0   -2153.9692   -1.2965059   -7095.6429    9.3191785    8.0706399    7.6090633    572.29084 
  753500     316.5181   -231.27768   -202.02979   -231.27768     68.04825    1855.0711            0            0    -2154.397   -1.4804424    7278.1673    8.9160389     7.721511    7.2799019    501.18697 
  754000    276.36757   -230.97244   -205.43466   -230.97244    61.985837    1861.1251            0            0   -2154.0834   -1.4119031    3360.0189    9.0580385    7.8444862    7.3958439    525.51656 
  754500    271.32093    -227.5976   -202.52615    -227.5976    44.894697    1881.5514            0            0   -2154.0437   -1.3549765   -3432.8998    9.1831541    7.9528394    7.4980001    547.59507 
  755000    318.11075   -230.70267   -201.30761   -230.70267     52.46144    1870.6322            0            0   -2153.7963   -1.3822699   -514.27457    9.1223105    7.9001473    7.4483216    536.78264 
  755500    271.93838   -227.28219   -202.15369   -227.28219    41.129412    1885.6713            0            0   -2154.0829   -1.2930984   -5108.8032    9.3273571    8.0777228    7.6157412    573.79892 
  756000    255.55521   -220.79692   -197.18231   -220.79692    49.151404     1884.238            0            0   -2154.1863   -1.4247653   -234.71908    9.0306987    7.8208092     7.373521    520.77241 
  756500    347.27478   -224.48625   -192.39629   -224.48625    45.126565    1884.0848            0            0   -2153.6976   -1.3489682   -2864.8613     9.196768    7.9646293    7.5091157    550.03408 
  757000    306.70032   -230.19533   -201.85466   -230.19533    49.443241    1874.3136            0            0   -2153.9522   -1.3558061   -1518.5233    9.1812809    7.9512171    7.4964706    547.26003 
  757500    290.40497   -228.25854   -201.42363   -228.25854    58.613197    1866.8855            0            0   -2153.7572     -1.41408    2533.1882    9.0533881    7.8404588    7.3920468    524.70756 
  758000    259.63859   -232.11519   -208.12326   -232.11519    47.130078    1874.9675            0            0   -2154.2128   -1.3835847    -2328.287    9.1194199    7.8976439    7.4459614    536.27252 
  758500    293.41351   -223.62764   -196.51473   -223.62764     59.27098    1871.4086            0            0   -2154.3072   -1.4619877    4852.0058     8.953398    7.7538649    7.3104054    507.51348 
  759000    356.82921     -229.779   -196.80616     -229.779    34.941676    1889.2058            0            0   -2153.9264   -1.3334308   -7208.1956    9.2323509     7.995445     7.538169    556.44317 
  759500    324.34846   -229.71518   -199.74373   -229.71518    56.540429    1867.7929            0            0   -2154.0485   -1.4287703    2676.5167    9.0222529    7.8134949     7.366625    519.31264 
  760000    309.80645   -236.40092   -207.77322   -236.40092    48.802287    1869.0468            0            0     -2154.25   -1.3996448   -2458.8446    9.0844057    7.8673209    7.4173726    530.11913 
  760500    314.81079   -233.08189   -203.99176   -233.08189    45.053159    1875.7568            0            0   -2153.8919   -1.3852383   -3256.2579    9.1157897    7.8945001    7.4429974    535.63235 
  761000    316.14314   -237.53684    -208.3236   -237.53684    65.432065    1851.3245            0            0   -2154.2934   -1.4402609    5654.9084    8.9981951    7.7926603     7.346982    515.16947 
  761500    294.55537    -229.6012   -202.38277    -229.6012    37.168725    1887.3656            0            0   -2154.1355    -1.382305   -5759.6238    9.1222333    7.9000804    7.4482585      536.769 
  762000    371.25295   -232.61238   -198.30671   -232.61238    47.740861     1873.705            0            0   -2154.0583   -1.3873775   -1949.2299    9.1111021    7.8904405      7.43917    534.80646 
  762500    281.23335    -229.9841    -203.9967    -229.9841    52.747514    1871.5554            0            0    -2154.287    -1.406268    397.81126    9.0701214    7.8549502    7.4057094    527.62238 
  763000     315.8423   -221.79876   -192.61332   -221.79876    51.300392    1880.8868            0            0   -2153.9859   -1.3929021    635.90736    9.0990405    7.8799949    7.4293218    532.68529 
  763500     264.1481   -225.26214   -200.85351   -225.26214    48.584405      1880.11            0            0   -2153.9565   -1.3877823   -597.84633    9.1102162    7.8896733    7.4384466    534.65047 
  764000    337.97527   -231.03338   -199.80273   -231.03338    57.086632     1865.679            0            0   -2153.7991   -1.3978138    1522.0837    9.0883704    7.8707544    7.4206097    530.81351 
  764500    250.67683   -235.58327   -212.41945   -235.58327    58.191998    1860.3922            0            0   -2154.1675   -1.4567562    2293.7483    8.9641031    7.7631358     7.319146    509.33607 
  765000    337.60874    -228.7152   -197.51842    -228.7152    50.772395    1874.3982            0            0   -2153.8858   -1.3823238   -392.52023     9.122192    7.9000447    7.4482248    536.76171 
  765500     272.0188   -224.53938   -199.40346   -224.53938     53.44432    1876.1536            0            0   -2154.1373   -1.3605129    901.34121    9.1706809    7.9420372    7.4878158    545.36674 
  766000    403.54775    -232.4163   -195.12643    -232.4163    67.627332    1854.2833            0            0    -2154.327   -1.4182006      6157.59    9.0446114     7.832858    7.3848807    523.18303 
  766500    318.71486   -228.57622   -199.12534   -228.57622    37.552263     1888.159            0            0   -2154.2874    -1.329231   -5730.2586     9.242064    8.0038568    7.5460997    558.20128 
  767000    276.19923   -224.38915   -198.86693   -224.38915    39.405634    1890.2835            0            0   -2154.0783   -1.3156682   -4927.9257    9.2737134    8.0312659    7.5719413     563.9556 
  767500    283.15426   -230.80068   -204.63577   -230.80068    59.680947    1863.5495            0            0   -2154.0311   -1.4302431    3741.8337    9.0191549     7.810812    7.3640956    518.77788 
  768000    254.96059   -229.32219   -205.76252   -229.32219    51.355525    1873.3658            0            0   -2154.0435   -1.3875207   -455.02996    9.1107886    7.8901691     7.438914    534.75126 
  768500    337.57182    -227.6169   -196.42354    -227.6169     50.28448    1876.0937            0            0    -2153.995    -1.409958   -383.47627     9.062202    7.8480919    7.3992433    526.24154 
  769000    393.65285   -236.88255   -200.50702   -236.88255    57.795847    1859.6222            0            0   -2154.3006   -1.4005103    1581.1308    9.0825339    7.8656998    7.4158442     529.7915 
  769500    234.50137   -231.83928   -210.17015   -231.83928    58.894049    1863.3672            0            0   -2154.1005   -1.3896879    2055.3068    9.1060503    7.8860655    7.4350452    533.91735 
  770000    269.19096   -236.32876   -211.45414   -236.32876    46.256161    1871.2872            0            0   -2153.8721   -1.3573016   -4407.9584    9.1779075    7.9482957    7.4937163    546.65703 
  770500    247.55573   -224.80856   -201.93314   -224.80856    54.620316    1874.7241            0            0    -2154.153   -1.4095393    1961.9876    9.0630991    7.8488688    7.3999758    526.39784 
  771000    277.37701   -235.86741   -210.23636   -235.86741    50.155898    1868.1152            0            0   -2154.1386   -1.3625493   -2046.4285    9.1661098    7.9380786    7.4840835    544.55165 
  771500    252.83333   -237.86202   -214.49893   -237.86202    67.135257    1849.3136            0            0   -2154.3109   -1.4409858    4832.9807    8.9966861    7.7913534    7.3457499    514.91033 
  772000    286.42258   -234.20866   -207.74175   -234.20866    53.786263    1866.2826            0            0   -2154.2776   -1.3897376   -655.11446    9.1059417    7.8859715    7.4349565    533.89825 
  772500    342.62143   -229.16784   -197.50787   -229.16784     50.34439     1874.642            0            0   -2154.1542   -1.4020611   -212.81627    9.0791839    7.8627987     7.413109    529.20551 
  773000    241.38079   -227.70721   -205.40239   -227.70721    43.420117    1882.9451            0            0   -2154.0725   -1.3644365   -3563.2298    9.1618818     7.934417    7.4806314    543.79845 
  773500    378.43951   -232.00505   -197.03531   -232.00505    57.357248    1864.8782            0            0   -2154.2405   -1.4506472     2578.854    8.9766687    7.7740179    7.3294058      511.481 
  774000    289.95121   -228.37909   -201.58611   -228.37909    65.396407    1860.2016            0            0   -2153.9771   -1.4680216    5591.2931    8.9411144     7.743227    7.3003759     505.4275 
  774500    263.90144   -232.66351   -208.27767   -232.66351    40.981677    1880.1965            0            0   -2153.8417    -1.379564   -5967.0575    9.1282708    7.9053091    7.4531881    537.83549 
  775000    277.44287   -230.09369   -204.45655   -230.09369    64.844517    1859.3075            0            0   -2154.2457   -1.4296463    5560.1622    9.0204096    7.8118986      7.36512    518.99442 
  775500    287.25459   -229.51231   -202.96852   -229.51231    52.766841    1871.8791            0            0   -2154.1582   -1.4088306    900.10281    9.0646187    7.8501848    7.4012165    526.66266 
  776000    241.06919   -230.59258   -208.31656   -230.59258    50.148298     1873.479            0            0   -2154.2199   -1.3650863   -1060.6503    9.1604279    7.9331579    7.4794443     543.5396 
  776500    323.87641   -226.74144    -196.8136   -226.74144    43.078797    1884.2772            0            0   -2154.0974   -1.3470553   -3865.5787    9.2011192    7.9683976    7.5126685    550.81515 
  777000    191.72691   -229.94428   -212.22773   -229.94428    51.176687    1872.9327            0            0   -2154.0537    -1.431935   -598.13923    9.0156012    7.8077344     7.361194    518.16489 
  777500    271.67532   -229.43468   -204.33049   -229.43468    53.523678    1870.9796            0            0   -2153.9379   -1.3926342    848.01805     9.099624    7.8805002    7.4297982    532.78777 
  778000     262.0499   -227.92714   -203.71239   -227.92714    44.645871     1881.497            0            0   -2154.0701   -1.3704705   -2926.0984    9.1484159    7.9227553    7.4696365    541.40419 
  778500    272.88348    -236.6604   -211.44457    -236.6604    55.503831    1862.1391            0            0   -2154.3033   -1.3967922   -99.030077    9.0905856    7.8726728    7.4224184    531.20175 
  779000    281.31762   -237.88775   -211.89256   -237.88775    52.327496    1863.8828            0            0    -2154.098   -1.3707153   -1419.5767    9.1478712    7.9222835    7.4691918    541.30749 
  779500    319.72838   -232.85676   -203.31222   -232.85676    60.013302    1861.0463            0            0   -2153.9163   -1.3993373    2695.5085    9.0850711    7.8678971    7.4179158    530.23562 
  780000    244.63735   -230.43771   -207.83197   -230.43771    54.186855    1869.5932            0            0   -2154.2177   -1.3972293    359.24634    9.0896377    7.8718518    7.4216444    531.03558 
  780500    280.61235   -236.38097   -210.45095   -236.38097    55.485126    1862.4207            0            0   -2154.2868   -1.4246828    418.24523    9.0308731    7.8209602    7.3736634    520.80258 
  781000    243.87726    -228.4554    -205.9199    -228.4554    55.941912     1869.828            0            0   -2154.2253   -1.4071812    2683.9696    9.0681589    7.8532506     7.404107    527.27996 
  781500    273.31649   -231.34413   -206.08829   -231.34413    44.212104    1878.6725            0            0   -2154.2288   -1.3880051    -2979.214    9.1097288    7.8892512    7.4380487    534.56466 
  782000    198.86688   -225.45517   -207.07886   -225.45517    45.393676    1883.2458            0            0   -2154.0947   -1.3923513   -1991.8635    9.1002402    7.8810339    7.4303013    532.89602 
  782500    281.76131   -225.90696   -199.87078   -225.90696    41.681115    1886.2852            0            0   -2153.8733   -1.3745021   -3744.6709    9.1394626    7.9150014    7.4623262    539.81617 
  783000    351.59791   -232.51054    -200.0211   -232.51054    54.521126     1867.135            0            0   -2154.1667   -1.4031832     596.0342    9.0767633    7.8607023    7.4111325    528.78233 
  783500    324.94742   -229.14008   -199.11327   -229.14008      49.2918    1875.9064            0            0   -2154.3383   -1.3952375   -714.28803    9.0939609    7.8755959    7.4251743    531.79367 
  784000    283.91443   -232.76798   -206.53284   -232.76798    59.272629    1862.2196            0            0   -2154.2602   -1.4190379    2570.8678     9.042832     7.831317    7.3834278     522.8743 
  784500    229.52608    -229.2746   -208.06522    -229.2746    46.463788    1878.3751            0            0   -2154.1135   -1.3677967   -2817.7772    9.1543733    7.9279145    7.4745007    542.46255 
  785000    333.34496   -230.02242   -199.21964   -230.02242    53.998369    1870.1067            0            0   -2154.1275   -1.4417227    1590.6715    8.9951529    7.7900257     7.344498    514.64713 
  785500    353.70954   -229.87732   -197.19276   -229.87732     49.96487    1874.1738            0            0    -2154.016   -1.4300119    561.42443    9.0196409    7.8112329    7.3644923    518.86174 
  786000    321.82537   -227.33857   -197.60026   -227.33857    49.972676    1877.0575            0            0   -2154.3688   -1.3990445   -596.08411    9.0857048    7.8684459    7.4184333    530.34659 
  786500    286.09306   -233.09676    -206.6603   -233.09676    50.361996    1870.3945            0            0   -2153.8532   -1.3965234   -1406.7013    9.0911688    7.8731779    7.4228946    531.30399 
  787000    287.64731   -229.80049   -203.22041   -229.80049    63.178889    1861.2117            0            0   -2154.1911   -1.4280158    5327.8338    9.0238416    7.8148708    7.3679222    519.58702 
  787500     258.3819   -234.13013   -210.25432   -234.13013    51.737797    1868.1975            0            0   -2154.0654   -1.3926624     -600.895    9.0995625     7.880447     7.429748    532.77697 
  788000    318.43184   -233.60476   -204.18003   -233.60476     43.09816    1877.3554            0            0   -2154.0583   -1.3764355   -4781.1101    9.1351814    7.9112939    7.4588306    539.05793 
  788500    308.19617   -233.56533   -205.08642   -233.56533    69.703642    1850.8366            0            0   -2154.1055   -1.4551758    7196.8293     8.967347     7.765945    7.3217946    509.88922 
  789000    321.44688   -229.87361   -200.17028   -229.87361    40.093061    1884.0995            0            0   -2154.0661   -1.3090437   -5852.9318    9.2893304    8.0447907    7.5846925    566.80953 
  789500    328.99458   -231.89042   -201.48964   -231.89042    53.209651    1869.1998            0            0   -2154.2999   -1.3989671   -92.138982    9.0858723     7.868591      7.41857    530.37592 
  790000    317.36236   -233.60165   -204.27575   -233.60165    52.152074    1868.3186            0            0   -2154.0723   -1.3828994   -872.67551    9.1209261    7.8989483    7.4471912    536.53828 
  790500    294.09951    -233.6245    -206.4482    -233.6245    43.627547    1876.9635            0            0   -2154.2155   -1.3422738    -4543.223    9.2120318    7.9778482    7.5215786    552.77729 
  791000    393.73726   -236.97133     -200.588   -236.97133    54.105431    1862.9491            0            0   -2154.0259   -1.4149499    531.61652    9.0515323    7.8388516    7.3905315    524.38496 
  791500    368.76359   -221.40262   -187.32698   -221.40262    49.013183    1883.3299            0            0   -2153.7457    -1.326571   -1091.4385    9.2482372     8.009203    7.5511401    559.32057 
  792000    280.27915   -227.48791   -201.58868   -227.48791    53.082024    1873.5933            0            0   -2154.1633   -1.3972296    1108.1824    9.0896369    7.8718512    7.4216438    531.03545 
  792500    324.84023   -234.20187   -204.18497   -234.20187    50.999235    1868.8119            0            0    -2154.013   -1.3682377   -1639.0228    9.1533896    7.9270626    7.4736975    542.28769 
  793000    347.24726   -236.39136   -204.30394   -236.39136    65.459372    1852.4112            0            0    -2154.262   -1.4377556    4325.6894    9.0034186    7.7971839    7.3512469    516.06717 
  793500    273.33477   -236.62474   -211.36721   -236.62474    51.233674    1866.3073            0            0   -2154.1657   -1.4104446   -1716.2812    9.0611597    7.8471892    7.3983922    526.05997 
  794000    226.82045   -234.54744   -213.58807   -234.54744    49.098191    1870.5821            0            0   -2154.2278   -1.3683118    -2718.731    9.1532243    7.9269194    7.4735626    542.25832 
  794500    287.55588   -236.59797   -210.02634   -236.59797    69.909393    1847.8868            0            0   -2154.3942   -1.4594967    7084.9711    8.9584888    7.7582737     7.314562    508.37967 
  795000    324.49444   -230.84166   -200.85672   -230.84166    39.038791    1884.3161            0            0   -2154.1965   -1.3549664   -6253.3681    9.1831769    7.9528592    7.4980187    547.59915 
  795500    299.54631   -230.86209   -203.18248   -230.86209    64.255056    1858.9753            0            0   -2154.0925   -1.4101313    4323.2864    9.0618307    7.8477703    7.3989401    526.17686 
  796000    195.34354   -217.84732   -199.79658   -217.84732    48.961987    1887.0389            0            0   -2153.8482   -1.3354138   -967.94561    9.2277789    7.9914855     7.534436     555.6169 
  796500    215.48954   -231.67335   -211.76101   -231.67335     48.45611    1874.0742            0            0   -2154.2036   -1.3631163   -2377.3366    9.1648388    7.9369779    7.4830457    544.32515 
  797000     409.7982   -228.60214    -190.7347   -228.60214    70.131712    1855.1161            0            0   -2153.8499   -1.4564736    8781.9085    8.9646827    7.7636377    7.3196193    509.43488 
  797500    197.06513   -222.45868   -204.24886   -222.45868    36.417972     1895.009            0            0   -2153.8857    -1.382152   -5845.8988    9.1225698    7.9003719    7.4485333    536.82842 
  798000    312.87965   -225.81271   -196.90103   -225.81271    45.830045    1882.1782            0            0   -2153.8209   -1.3366546   -2264.0413    9.2249226    7.9890119    7.5321038    555.10111 
  798500     352.5265   -227.25127   -194.67602   -227.25127    66.649299     1860.426            0            0   -2154.3265   -1.4297961    7019.2675    9.0200946    7.8116258    7.3648629    518.94005 
  799000    331.34984   -230.96514   -200.34672   -230.96514    60.292794    1862.8379            0            0   -2154.0958   -1.3949886    2564.7446    9.0945019    7.8760643     7.425616    531.88857 
  799500    321.88759   -230.35355    -200.6095   -230.35355    53.233887    1870.7072            0            0   -2154.2946   -1.3917853     373.4631    9.1014737    7.8821021    7.4313085    533.11275 
  800000    382.26713   -225.40509   -190.08165   -225.40509    51.577216    1876.9372            0            0   -2153.9195    -1.358638    229.19102    9.1748972    7.9456887    7.4912584    546.11931 
Loop time of 100.585 on 4 procs for 500000 steps with 48 atoms

Performance: 858.979 ns/day, 0.028 hours/ns, 4970.943 timesteps/s
98.7% CPU use with 4 MPI tasks x no OpenMP threads

MPI task timing breakdown:
Section |  min time  |  avg time  |  max time  |%varavg| %total
---------------------------------------------------------------
Pair    | 26.189     | 33.49      | 40.013     |  89.0 | 33.30
Bond    | 0.059551   | 0.06737    | 0.071772   |   1.8 |  0.07
Kspace  | 27.718     | 34.301     | 41.657     |  88.7 | 34.10
Neigh   | 0.79768    | 0.80114    | 0.80315    |   0.2 |  0.80
Comm    | 11.964     | 12.357     | 12.757     |  10.8 | 12.29
Output  | 0.39413    | 0.39537    | 0.39848    |   0.3 |  0.39
Modify  | 14.183     | 16.506     | 18.554     |  49.5 | 16.41
Other   |            | 2.667      |            |       |  2.65

Nlocal:    12 ave 14 max 10 min
Histogram: 1 0 0 0 0 2 0 0 0 1
Nghost:    1737.5 ave 1756 max 1719 min
Histogram: 1 1 0 0 0 0 0 0 1 1
Neighs:    2746.25 ave 3358 max 1920 min
Histogram: 1 0 0 0 1 0 0 0 1 1

Total # of neighbors = 10985
Ave neighs/atom = 228.854
Ave special neighs/atom = 2
Neighbor list builds = 10227
Dangerous builds = 29

unfix		1
unfix		2
unfix		3

write_data	data.final
PPPM initialization ...
  extracting TIP4P info from pair style
  using 12-bit tables for long-range coulomb (../kspace.cpp:323)
  G vector (1/distance) = 0.3414
  grid = 8 8 6
  stencil order = 5
  estimated absolute RMS force accuracy = 0.014619
  estimated relative force accuracy = 4.40248e-05
  using double precision KISS FFT
  3d grid and FFT values/proc = 1573 128
Total wall time: 0:02:43
