LAMMPS (19 Sep 2019)
echo both

include		in.temp
variable	temperature equal 300.0

variable	tempDamp equal 100.0
include		in.pressure
variable        pressure equal 1.
variable        pressureDamp equal 1000.0 # This is 1 ps
include		in.seed
variable	seed equal 745821
units		real
atom_style	full
include		in.box
read_data       ice.data
  orthogonal box = (-1.11969 1.5e-05 2.15224) to (12.3503 15.5616 16.8239)
  1 by 2 by 2 MPI processor grid
  reading atoms ...
  288 atoms
  scanning bonds ...
  2 = max bonds/atom
  scanning angles ...
  1 = max angles/atom
  reading bonds ...
  192 bonds
  reading angles ...
  96 angles
  2 = max # of 1-2 neighbors
  1 = max # of 1-3 neighbors
  1 = max # of 1-4 neighbors
  2 = max # of special neighbors
  special bonds CPU = 5.7213e-05 secs
  read_data CPU = 0.000721357 secs
include 	in.setup
variable	out_freq equal 500
variable	out_freq2 equal 500

timestep	2.0

neigh_modify    delay 10 every 1

include		in.tip4p
# This is TIP4P/Ice

# create groups ###
group ox type 2
96 atoms in group ox
group hy type 1
192 atoms in group hy

# set charges - beside manually ###
set group ox charge -1.1794
  96 settings made for charge
set group hy charge 0.5897
  192 settings made for charge

# ### TIP3P Potential Parameters ###
pair_style lj/cut/tip4p/long 2 1 1 1 0.1577 8.5
pair_coeff 1 1*2 0.000 0.000
pair_coeff 2 2 0.21084 3.1668
bond_style  harmonic
bond_coeff  1 450 0.9572
angle_style harmonic
angle_coeff 1 55 104.52
kspace_style pppm/tip4p 1.0e-4 #final npt relaxation
pair_modify tail yes

thermo          ${out_freq}
thermo          500
thermo_style 	custom step temp pe etotal epair evdwl ecoul ebond eangle elong etail press lx ly lz vol

restart 	${out_freq} restart.lmp restart2.lmp
restart 	500 restart.lmp restart2.lmp

include 	in.dump
dump            myDump all atom ${out_freq2} dump.water
dump            myDump all atom 500 dump.water
dump            myDump2 all dcd ${out_freq2} dump.dcd
dump            myDump2 all dcd 500 dump.dcd

fix 		1 all shake 1e-6 200 0 b 1 a 1
  0 = # of size 2 clusters
  0 = # of size 3 clusters
  0 = # of size 4 clusters
  96 = # of frozen angles
  find clusters CPU = 5.898e-05 secs
fix             2 all nph aniso ${pressure} ${pressure} ${pressureDamp}
fix             2 all nph aniso 1 ${pressure} ${pressureDamp}
fix             2 all nph aniso 1 1 ${pressureDamp}
fix             2 all nph aniso 1 1 1000
fix             3 all temp/csvr ${temperature} ${temperature} ${tempDamp} ${seed}
fix             3 all temp/csvr 300 ${temperature} ${tempDamp} ${seed}
fix             3 all temp/csvr 300 300 ${tempDamp} ${seed}
fix             3 all temp/csvr 300 300 100 ${seed}
fix             3 all temp/csvr 300 300 100 745821
velocity 	all create ${temperature} ${seed} dist gaussian
velocity 	all create 300 ${seed} dist gaussian
velocity 	all create 300 745821 dist gaussian

run             500000
PPPM initialization ...
  extracting TIP4P info from pair style
  using 12-bit tables for long-range coulomb (../kspace.cpp:323)
  G vector (1/distance) = 0.332588
  grid = 10 12 12
  stencil order = 5
  estimated absolute RMS force accuracy = 0.0231877
  estimated relative force accuracy = 6.98291e-05
  using double precision KISS FFT
  3d grid and FFT values/proc = 2873 360
Neighbor list info ...
  update every 1 steps, delay 10 steps, check yes
  max neighbors/atom: 2000, page size: 100000
  master list distance cutoff = 10.8154
  ghost atom cutoff = 10.8154
  binsize = 5.4077, bins = 3 3 3
  1 neighbor lists, perpetual/occasional/extra = 1 0 0
  (1) pair lj/cut/tip4p/long, perpetual
      attributes: half, newton on
      pair build: half/bin/newton
      stencil: half/bin/3d/newton
      bin: standard
Per MPI rank memory allocation (min/avg/max) = 9.047 | 9.047 | 9.047 Mbytes
Step Temp PotEng TotEng E_pair E_vdwl E_coul E_bond E_angle E_long E_tail Press Lx Ly Lz Volume 
       0          300   -1578.4443   -1407.6439   -1578.4443    404.79745    10496.467            0            0   -12479.709    -8.685473    5809.9236        13.47      15.5616    14.671634    3075.3909 
     500    317.08873   -1391.2368   -1210.7072   -1391.2368    346.30131    10738.924            0            0   -12476.462   -8.5048255    2503.0064    13.215569    16.335218    14.548479     3140.714 
    1000    290.77207   -1359.5576    -1194.011   -1359.5576    334.12439    10782.205            0            0   -12475.887   -8.4922592     2493.201    13.105238    16.135853    14.874204    3145.3615 
    1500    310.06992   -1368.9712   -1192.4376   -1368.9712    271.91111    10835.504            0            0   -12476.386     -8.11947   -2785.1338    13.489592    16.518581    14.763678    3289.7744 
    2000    288.68266   -1376.1055   -1211.7484   -1376.1055    335.52256    10764.366            0            0   -12475.994    -8.514312    1723.3842    13.333634    15.952898    14.748781    3137.2147 
    2500    301.31066   -1380.3066     -1208.76   -1380.3066    311.02142    10785.249            0            0   -12476.577   -8.3956481   -157.68293    13.160483    16.320374    14.812816     3181.556 
    3000    302.28329   -1394.3235   -1222.2231   -1394.3235    308.02288    10774.493            0            0   -12476.839     -8.47835   -319.59852    13.058023    16.248805    14.848536    3150.5216 
    3500    304.09215   -1398.5923   -1225.4621   -1398.5923    311.27119    10766.332            0            0   -12476.195   -8.3478652   -867.14251    13.504139    16.102515    14.714916    3199.7671 
    4000    294.13435   -1363.6495   -1196.1886   -1363.6495    307.51877    10805.606            0            0   -12476.775    -8.440647     266.8912    13.494937    16.232186    14.446751    3164.5945 
    4500    334.91401   -1392.8615   -1202.1833   -1392.8615    315.58999    10767.877            0            0   -12476.329   -8.4531298    88.808106    13.219836    15.962483    14.974411    3159.9213 
    5000    304.59695   -1387.9967   -1214.5791   -1387.9967     331.3579    10757.186            0            0   -12476.541   -8.4856703    1672.2742    13.073873    16.492243    14.599018    3147.8037 
    5500     323.1298   -1411.3079   -1227.3389   -1411.3079    318.50081    10747.181            0            0    -12476.99   -8.3534475   -260.66982     13.37912    16.029884    14.909741    3197.6289 
    6000    287.79122   -1389.4896     -1225.64   -1389.4896    308.96967    10778.113            0            0   -12476.572   -8.4870978   -498.25036     13.37691    16.223375    14.502323    3147.2743 
    6500    296.89233   -1383.7055   -1214.6744   -1383.7055    325.11684     10768.11            0            0   -12476.932   -8.4782139    890.33209    13.033748    16.197646    14.923415    3150.5722 
    7000    294.35805   -1370.9348   -1203.3465   -1370.9348    302.66052    10802.198            0            0   -12475.793   -8.2949336   -340.65055     13.19216    16.307785    14.968215    3220.1855 
    7500      294.945   -1392.6068   -1224.6843   -1392.6068    345.18668    10738.682            0            0   -12476.475   -8.5067719     2260.921    13.339301    16.310233    14.432307    3139.9954 
    8000    321.58426   -1368.4428   -1185.3538   -1368.4428     296.2525     10810.81            0            0   -12475.506   -8.2560434   -972.75246    13.509382    16.000913    14.967236    3235.3542 
    8500    321.46619   -1356.9937   -1173.9718   -1356.9937    281.61264    10837.405            0            0   -12476.011   -8.3945472   -867.89896    13.170403    16.531484    14.614556    3181.9733 
    9000    310.90486    -1382.046    -1205.037    -1382.046    334.86116    10759.827            0            0   -12476.734    -8.551259    2009.8177    13.057454    15.898286    15.047174    3123.6599 
    9500    310.27187   -1385.7514   -1209.1029   -1385.7514    323.63031    10767.491            0            0   -12476.873   -8.4203281    847.37255     13.33024    16.273977    14.622887    3172.2309 
   10000    280.72373   -1390.9514   -1231.1257   -1390.9514    310.95619    10774.328            0            0   -12476.236   -8.5440895    -193.3469    13.351664    16.036448    14.601062     3126.281 
   10500    291.47191   -1374.7386   -1208.7935   -1374.7386    275.11054     10827.15            0            0   -12476.999   -8.2830248   -2645.9502     13.20955    16.268125    15.006496    3224.8152 
   11000    280.11615   -1364.6809   -1205.2011   -1364.6809    287.19235    10824.135            0            0   -12476.008   -8.3793925   -1151.0098    13.159892    16.346086    14.818873    3187.7281 
   11500    272.84863   -1360.4532    -1205.111   -1360.4532    297.58417    10816.581            0            0   -12474.619   -8.4224889   -386.74878    13.409476    15.986638    14.793959     3171.417 
   12000    279.01361   -1377.1721     -1218.32   -1377.1721    315.46391    10784.238            0            0   -12476.874   -8.3811407    211.35757    13.515684    16.410524    14.369121    3187.0632 
   12500    305.71852   -1376.2102    -1202.154   -1376.2102    301.66401    10798.811            0            0   -12476.686   -8.4245728   -485.55851     13.18833    15.927805    15.093854    3170.6326 
   13000    267.62565   -1390.1922   -1237.8237   -1390.1922    294.02138    10793.118            0            0   -12477.331   -8.3466328    -1167.139    13.112798    16.561483    14.736281    3200.2396 
   13500    288.21737   -1397.1479   -1233.0558   -1397.1479    298.05542    10782.048            0            0   -12477.251   -8.3836435   -1615.7949    13.350565     16.14716    14.779686    3186.1117 
   14000    330.27918   -1388.4177   -1200.3783   -1388.4177    279.73761     10808.77            0            0   -12476.925   -8.2510899   -2273.7147    13.404851    16.333829     14.78538    3237.2965 
   14500    314.97402   -1372.3639   -1193.0383   -1372.3639    324.70045    10779.964            0            0   -12477.028   -8.5094086     1403.277     13.29748    16.220887    14.552931    3139.0224 
   15000     294.6438   -1373.6074   -1205.8564   -1373.6074    302.13075    10802.056            0            0   -12477.794   -8.2993874   -512.79102    13.152397    16.203173    15.102289    3218.4574 
   15500    280.01431   -1386.0148   -1226.5929   -1386.0148    313.10116    10777.982            0            0   -12477.098    -8.421115    63.627687    13.011552    16.471818    14.799723    3171.9344 
   16000    284.44667   -1382.6328   -1220.6874   -1382.6328    301.60062    10791.564            0            0   -12475.797   -8.2998546   -824.69971    13.404456    16.131003    14.883763    3218.2762 
   16500     328.7324    -1376.945   -1189.7862    -1376.945    292.37094    10806.245            0            0   -12475.561   -8.2775146   -1329.9507    13.456072     16.27929    14.731266    3226.9619 
   17000    313.35969    -1379.722   -1201.3154    -1379.722    328.92613    10768.315            0            0   -12476.963   -8.4955145    1219.7548    13.339358    16.009239    14.723075    3144.1562 
   17500    267.80241   -1383.1108   -1230.6416   -1383.1108    297.13521    10796.297            0            0   -12476.543   -8.3366922   -892.92063     13.10076    16.520495    14.804048    3204.0555 
   18000    306.01933   -1405.9583   -1231.7309   -1405.9583    323.97868    10747.341            0            0   -12477.278   -8.4120414    131.47867    13.154416    16.141586    14.954594    3175.3558 
   18500    288.97137   -1393.2152   -1228.6937   -1393.2152    323.88426    10760.486            0            0   -12477.585   -8.5472412    772.88369    13.256979    16.152695    14.594133    3125.1282 
   19000    315.66288   -1380.1962   -1200.4784   -1380.1962    291.82405    10804.587            0            0   -12476.607   -8.2804133   -1307.9521    13.433404    16.202966    14.820444    3225.8323 
   19500    305.00952   -1380.6243   -1206.9718   -1380.6243    368.05137    10727.697            0            0   -12476.372    -8.612748    4305.2797    13.157085    16.087541    14.652196    3101.3591 
   20000    299.48139   -1392.2439   -1221.7387   -1392.2439    309.96085    10773.848            0            0   -12476.052   -8.4035935   -207.06774    13.099402    16.328784    14.860159    3178.5479 
   20500    330.98415   -1374.8529   -1186.4121   -1374.8529    308.44375    10792.624            0            0   -12475.921   -8.3489397    128.24233    13.148731    16.268706     14.95635    3199.3553 
   21000    307.64169   -1396.8396   -1221.6885   -1396.8396    297.94905    10782.502            0            0   -12477.291   -8.4277629   -1467.9116    13.523406    16.155521    14.506894    3169.4324 
   21500    300.96567   -1359.7312    -1188.381   -1359.7312    302.09501    10813.639            0            0   -12475.465   -8.3789333   -122.13963    13.464098    16.072102    14.731776    3187.9028 
   22000    241.47971    -1377.798   -1240.3152    -1377.798    344.78124    10754.203            0            0   -12476.782   -8.5158226    2361.0865    13.062972    16.188791    14.832378    3136.6582 
   22500    299.27804   -1388.4681   -1218.0788   -1388.4681    317.02251    10771.524            0            0   -12477.015   -8.4662917    604.65622    13.070561    16.235766    14.867349    3155.0088 
   23000    296.16732   -1367.1223   -1198.5039   -1367.1223    312.67664    10796.335            0            0   -12476.134   -8.4210011    552.29792    13.290703    16.190112    14.741181    3171.9773 
   23500    305.53822   -1395.1855    -1221.232   -1395.1855    297.19632    10785.193            0            0   -12477.575   -8.4167963   -1380.3247    13.613041    16.122628    14.459591     3173.562 
   24000    290.48697     -1365.88   -1200.4957     -1365.88    293.56447    10817.118            0            0   -12476.562   -8.2785157   -1000.8639    13.312148    16.282153    14.886114    3226.5717 
   24500    286.04716   -1382.6525   -1219.7959   -1382.6525    308.06286    10785.556            0            0   -12476.271   -8.4287488   -69.756532    13.096829    16.300794    14.844164    3169.0617 
   25000    313.53028   -1370.8079   -1192.3042   -1370.8079    288.14477    10817.419            0            0   -12476.372   -8.3044741   -1249.7573    13.227896    16.332248    14.888293     3216.486 
   25500    324.71452   -1353.6125   -1168.7413   -1353.6125     324.4319    10798.303            0            0   -12476.347   -8.4197869    1417.0777    13.688007    15.930409    14.548746    3172.4348 
   26000     303.8955   -1378.2177   -1205.1994   -1378.2177    327.13677    10771.201            0            0   -12476.555   -8.4242638    1121.5543    13.305349    16.227607    14.685241    3170.7489 
   26500    301.50491    -1381.888   -1210.2308    -1381.888    312.02423    10783.014            0            0   -12476.927   -8.4768997    489.92951     13.09988    16.153083    14.891349    3151.0606 
   27000    294.72589   -1396.1014   -1228.3037   -1396.1014    279.61645    10800.838            0            0   -12476.556   -8.3252505   -2334.7105    13.162497    16.492996    14.779463     3208.459 
   27500    297.43421   -1375.5602   -1206.2205   -1375.5602    333.45851     10768.37            0            0   -12477.389   -8.4556955    1706.2616    13.432928    15.950911    14.743083    3158.9625 
   28000    291.61831    -1393.841   -1227.8126    -1393.841    321.11439     10760.57            0            0   -12475.525   -8.4026835    436.81838    13.399637    16.244016    14.604589    3178.8922 
   28500    303.98226   -1361.6371   -1188.5694   -1361.6371    288.86541    10825.152            0            0   -12475.655   -8.2755931    -1224.825    13.303436    16.079914    15.088537    3227.7112 
   29000    290.47161   -1401.8043   -1236.4288   -1401.8043    321.65065    10753.926            0            0   -12477.381   -8.4994858    411.24987    12.931292     16.49809    14.730774    3142.6872 
   29500    301.74361   -1382.5058   -1210.7127   -1382.5058    312.52828    10781.526            0            0    -12476.56   -8.3041881   -281.09282    13.348625    16.183009     14.89021    3216.5968 
   30000    327.37199   -1384.3915   -1198.0072   -1384.3915    317.36354    10775.172            0            0   -12476.927   -8.3491815    480.97574    13.381484    16.372299    14.602793    3199.2627 
   30500    300.45244   -1397.8752   -1226.8172   -1397.8752    306.13194    10772.967            0            0   -12476.974   -8.2791063   -991.38169    13.350728    16.093564    15.015962    3226.3416 
   31000    256.67209   -1400.8954   -1254.7631   -1400.8954     347.6564    10728.513            0            0   -12477.065    -8.583505    2241.8019    13.085007    16.380573    14.518645    3111.9251 
   31500    294.00927   -1389.0045   -1221.6148   -1389.0045    303.41956    10784.358            0            0   -12476.782   -8.4254859   -778.59881    13.251503    16.062346     14.89446    3170.2889 
   32000    265.28311    -1369.951   -1218.9161    -1369.951    302.80856    10802.565            0            0   -12475.324   -8.2540007   -684.32652    13.457687    16.260643    14.788399    3236.1549 
   32500    283.04209   -1367.5236   -1206.3779   -1367.5236    341.16482    10768.136            0            0   -12476.824   -8.5223487    2666.2353     13.31164    16.095574    14.628388    3134.2563 
   33000    272.51309    -1374.055   -1218.9039    -1374.055     303.0078    10799.713            0            0   -12476.775   -8.3976848   -441.75827    13.298595    16.095648    14.860041    3180.7844 
   33500    333.70727   -1369.3067   -1179.3156   -1369.3067    310.33521    10795.975            0            0   -12475.617   -8.3792496     590.5841    13.192934    16.334931    14.792105    3187.7824 
   34000    266.92983   -1390.7585   -1238.7861   -1390.7585    350.43845    10735.764            0            0   -12476.961   -8.5462084    2328.7521    13.408324    15.654145    14.890747    3125.5059 
   34500    293.27807    -1384.689   -1217.7156    -1384.689    305.72746    10786.287            0            0   -12476.703   -8.4492235   -118.61218    13.289418      16.5512    14.372806    3161.3822 
   35000    314.97288   -1403.0851   -1223.7601   -1403.0851    320.29701     10753.73            0            0   -12477.112   -8.4587479    67.781757    13.195824    15.871279    15.077845    3157.8225 
   35500    288.02081   -1388.7804   -1224.8001   -1388.7804    311.70092    10775.627            0            0   -12476.109   -8.4597804    182.97428    13.112482    16.592312    14.512523    3157.4371 
   36000    298.06486   -1414.0973   -1244.3987   -1414.0973    320.71967    10742.054            0            0   -12476.871   -8.4610149   -584.99658    13.411375    15.635085     15.05559    3156.9764 
   36500    299.97211    -1388.866   -1218.0814    -1388.866    317.41686    10770.547            0            0    -12476.83   -8.4421629    322.24727    13.393147    16.383809    14.419246    3164.0262 
   37000    292.37008   -1374.8221   -1208.3657   -1374.8221    315.34886    10785.681            0            0   -12475.852   -8.3451097    420.28645    13.251411     16.15236    14.954216    3200.8237 
   37500    315.15824   -1366.3307   -1186.9001   -1366.3307    315.46744    10795.494            0            0   -12477.292   -8.3415291    649.69468    13.128889    16.473261    14.806097    3202.1976 
   38000     294.6682   -1350.8828    -1183.118   -1350.8828    290.42276    10835.034            0            0    -12476.34   -8.2815909    -952.4136    13.416557    16.193481    14.845633    3225.3736 
   38500    283.20357   -1379.2946    -1218.057   -1379.2946    337.59074    10759.985            0            0    -12476.87   -8.4272187    1593.4924    13.538072    15.969995    14.660472    3169.6371 
   39000    324.60351   -1382.8857   -1198.0777   -1382.8857    301.41306    10792.726            0            0   -12477.025   -8.3699584   -424.72282    13.298151    16.418685    14.616415    3191.3211 
   39500    285.42392   -1387.9278    -1225.426   -1387.9278    319.86215    10768.493            0            0   -12476.283   -8.4427483    346.83703    13.170489     15.89061    15.117065    3163.8068 
   40000    278.53253   -1361.1118   -1202.5336   -1361.1118    293.01903    10820.311            0            0   -12474.441    -8.377158   -502.90702    13.172338    16.691024    14.502779    3188.5784 
   40500    290.16407   -1376.9925   -1211.7921   -1376.9925    315.79391    10784.123            0            0   -12476.909   -8.3854237    326.97269    13.336505     15.98814    14.939251    3185.4353 
   41000    284.31296   -1383.8807   -1222.0115   -1383.8807    313.14771    10780.037            0            0   -12477.066   -8.3770499   -160.80075     13.39603    16.303359    14.599887    3188.6195 
   41500    281.79339   -1377.5537    -1217.119   -1377.5537    299.80667    10799.644            0            0   -12477.004   -8.2722832   -1241.6854    13.428294    16.055053    14.977379    3229.0027 
   42000    285.11683   -1391.8958   -1229.5689   -1391.8958    295.05225    10790.263            0            0   -12477.211   -8.4207932   -1083.2346    13.072647    16.464749    14.737443    3172.0557 
   42500    279.78036   -1381.0052   -1221.7165   -1381.0052    324.13329    10771.645            0            0   -12476.783   -8.4259188    821.78986    13.222867    16.186159    14.811775     3170.126 
   43000    324.45467   -1372.9497   -1188.2264   -1372.9497    296.82908    10805.697            0            0   -12475.476   -8.2314648    -796.6125    13.532469    16.154944    14.843427    3245.0148 
   43500    312.29752    -1388.379   -1210.5771    -1388.379    321.73705    10765.619            0            0   -12475.735   -8.4759303    777.99379    13.428739    16.345468    14.357335     3151.421 
   44000    308.86905   -1386.6352   -1210.7853   -1386.6352    314.78227    10775.478            0            0   -12476.895    -8.455065    431.02398    13.051015    15.920106    15.205007     3159.198 
   44500    315.67637   -1370.6626   -1190.9371   -1370.6626    283.23373    10822.522            0            0   -12476.418   -8.2735799   -1676.5053    13.221777     16.44212    14.850898    3228.4966 
   45000    278.21993   -1372.5497   -1214.1495   -1372.5497    322.56743    10781.954            0            0   -12477.071   -8.5775132    1279.0346    13.263684    15.961703    14.709199    3114.0989 
   45500    303.59675   -1400.4962    -1227.648   -1400.4962    271.11524     10805.25            0            0   -12476.861   -8.2363526   -3414.7606    13.466798    16.344164    14.734378     3243.089 
   46000    326.51646   -1377.2183   -1191.3211   -1377.2183    337.44192    10762.102            0            0   -12476.762   -8.5966724     2280.569    13.139431    15.948977    14.827025    3107.1586 
   46500    314.81276   -1364.0913   -1184.8574   -1364.0913    267.72302    10844.994            0            0   -12476.808   -8.2223745   -2363.1506    13.250456    16.476482    14.879943    3248.6023 
   47000     289.0272   -1353.7691   -1189.2158   -1353.7691    293.30545    10829.154            0            0   -12476.229    -8.415592   -314.37359    13.328285    16.040133    14.846596    3174.0161 
   47500    311.52022      -1375.3   -1197.9408      -1375.3    306.19525    10794.326            0            0   -12475.822   -8.3771452   -122.25254    13.426944    16.187663    14.670214    3188.5832 
   48000    282.29458   -1392.5407   -1231.8206   -1392.5407    308.07535    10776.356            0            0   -12476.972   -8.4303507   -206.26943    13.159039    16.345146    14.731101    3168.4595 
   48500    304.78779   -1393.5606   -1220.0343   -1393.5606    333.41355    10749.363            0            0   -12476.337   -8.4679252    1432.2643    13.152986    16.062001    14.931133    3154.4002 
   49000    289.27172   -1383.7014   -1219.0089   -1383.7014    296.84349    10795.715            0            0    -12476.26   -8.3761537   -1155.6911    13.319802    16.462587    14.542976    3188.9607 
   49500    283.12439   -1361.9745   -1200.7819   -1361.9745    317.76506    10797.527            0            0   -12477.267      -8.4558    761.57301    13.544894    15.407824    15.136386    3158.9234 
   50000    297.89944   -1384.2968   -1214.6923   -1384.2968    309.92465    10782.562            0            0   -12476.783   -8.4587644    22.809393    13.212664    16.518368    14.468694    3157.8164 
   50500    300.04322   -1399.4107   -1228.5857   -1399.4107    318.90072     10758.36            0            0   -12476.671   -8.4350165    58.616157    13.205686    16.049052    14.941614    3166.7069 
   51000    294.56875    -1391.276   -1223.5678    -1391.276    304.43972    10781.043            0            0   -12476.759   -8.3952035   -632.65296    13.238126    16.322079    14.725179    3181.7245 
   51500     312.4771   -1355.5474   -1177.6433   -1355.5474    321.87162     10799.44            0            0   -12476.859   -8.5316733    1892.3514    13.284789    16.062936    14.671686    3130.8307 
   52000    285.72308   -1365.3477   -1202.6757   -1365.3477    285.94098     10825.46            0            0   -12476.748   -8.3204339   -1421.1263    13.353611    16.154667    14.881651    3210.3163 
   52500     285.2562   -1381.4373    -1219.031   -1381.4373     317.1847     10777.68            0            0   -12476.302   -8.4271064    595.89604    13.222291    16.338528    14.672215    3169.6793 
   53000     294.2507    -1346.194   -1178.6668    -1346.194    298.26832    10832.034            0            0   -12476.496   -8.3744839   -15.627576    13.264438    16.014146    15.015614    3189.5965 
   53500    317.07631   -1368.4716    -1187.949   -1368.4716    311.47477    10796.106            0            0   -12476.052   -8.4368781    614.17865    13.184148    16.527428    14.529634    3166.0082 
   54000     294.4972   -1382.1777   -1214.5102   -1382.1777    291.61533    10803.653            0            0   -12477.446   -8.4850551   -1513.3188    13.356453    15.662735    15.048056     3148.032 
   54500    280.73855   -1372.8289   -1212.9947   -1372.8289      307.639     10796.68            0            0   -12477.148    -8.429105     118.3178    13.293679    16.361497    14.569482    3168.9278 
   55000    310.69246   -1357.6564   -1180.7684   -1357.6564    304.18368    10814.658            0            0   -12476.498   -8.3610727    89.156746    13.293563    16.195789    14.838442    3194.7126 
   55500    329.14602   -1392.3425   -1204.9482   -1392.3425    324.89714     10759.27            0            0    -12476.51   -8.4740495     894.8412    13.221577    16.250198    14.671039    3152.1204 
   56000    284.82692    -1373.435   -1211.2732    -1373.435    288.92094     10814.14            0            0   -12476.496   -8.3031093   -1440.3874    13.482071    16.269124    14.666695    3217.0147 
   56500    296.27029   -1379.1106   -1210.4336   -1379.1106    346.49829    10751.568            0            0   -12477.176   -8.5661931    2701.4179    13.281923    15.935742    14.732372    3118.2142 
   57000    344.29167   -1373.9192    -1177.902   -1373.9192    310.38002    10792.371            0            0   -12476.671   -8.3879866    438.86728    13.209586    16.435129    14.668096     3184.462 
   57500    305.78527   -1365.0209   -1190.9267   -1365.0209    302.94031    10808.081            0            0   -12476.042    -8.335243   -181.96737    13.088324    16.293349    15.027306    3204.6126 
   58000    329.76599   -1381.5839   -1193.8367   -1381.5839    279.87607    10814.732            0            0   -12476.192   -8.3642325   -2212.9393     13.42487    16.426097    14.481823    3193.5058 
   58500     298.2112   -1386.8855   -1217.1035   -1386.8855    314.96461    10774.317            0            0   -12476.167   -8.3958515     109.4557    13.481928    15.953424    14.791872    3181.4789 
   59000    318.03427   -1386.2663   -1205.1983   -1386.2663    281.65165    10808.556            0            0   -12476.474   -8.2456904    -2123.731    13.313581    16.495858    14.750169    3239.4164 
   59500    330.86437   -1390.0982   -1201.7256   -1390.0982    302.81138    10783.284            0            0   -12476.193    -8.455488   -421.16215    13.095791    16.242982    14.851066      3159.04 
   60000     245.4354    -1378.136   -1238.4011    -1378.136    324.47045     10773.77            0            0   -12476.377   -8.3726913    892.27147    13.252361    16.259252    14.805903    3190.2794 
   60500    312.76259   -1372.2974   -1194.2308   -1372.2974     295.9718    10808.811            0            0    -12477.08   -8.2871007   -1019.9765     13.72346    16.092608      14.5949    3223.2292 
   61000    288.59411   -1374.1815   -1209.8748   -1374.1815    349.91016     10752.58            0            0   -12476.671    -8.452859    2877.1214    13.300734    16.095017     14.76125    3160.0225 
   61500    311.88019   -1370.3626   -1192.7984   -1370.3626    295.27356     10811.45            0            0   -12477.086   -8.3758549    -536.6265    13.011717    16.405463    14.939688    3189.0744 
   62000    291.57705   -1390.4463   -1224.4413   -1390.4463    299.39745    10786.163            0            0   -12476.006   -8.4002776   -1272.6309     13.36142    15.990679    14.882662    3179.8026 
   62500    330.71688   -1362.2861   -1173.9975   -1362.2861    295.42817    10818.207            0            0   -12475.921     -8.48091   -447.70964    13.472031    16.185646    14.444025    3149.5706 
   63000    308.01857   -1388.9044   -1213.5387   -1388.9044    288.48543     10799.62            0            0    -12477.01   -8.2967312   -1695.9019    13.305767    16.290357    14.853072    3219.4878 
   63500    282.90554   -1379.1239    -1218.056   -1379.1239    304.44418    10793.298            0            0   -12476.866   -8.4462272    -278.3826    13.101524    16.246003     14.85808    3162.5037 
   64000     270.7148   -1379.8747   -1225.7474   -1379.8747    295.69481     10801.09            0            0   -12476.659   -8.3770613    -829.1615    13.212657    16.418358    14.698811    3188.6152 
   64500    306.03033   -1382.7878   -1208.5541   -1382.7878    319.46259    10773.547            0            0   -12475.797   -8.5190572    656.87506    13.428292    15.863024    14.719583    3135.4672 
   65000    320.62018   -1373.9595   -1191.4193   -1373.9595    333.97244     10768.44            0            0   -12476.372    -8.547247     2084.317    13.379803    16.257528    14.366908    3125.1261 
   65500    297.43272   -1401.1381   -1231.7993   -1401.1381    340.91072    10734.367            0            0   -12476.416   -8.5331634     1594.978    13.107644    15.991049    14.934206     3130.284 
   66000    302.86334   -1391.9235   -1219.4928   -1391.9235    283.03428    10802.393            0            0   -12477.351   -8.2844251   -2344.2211     13.22076    16.420958    14.851712    3224.2702 
   66500    299.90024   -1392.6154   -1221.8718   -1392.6154    325.72855    10758.688            0            0   -12477.032   -8.4663799    778.62384    13.287348    16.137373    14.713802    3154.9759 
   67000    298.13014   -1369.6412   -1199.9053   -1369.6412    292.19193    10814.465            0            0   -12476.298   -8.2603888   -1028.5926    13.481212    16.326833    14.691375    3233.6522 
   67500    275.15534   -1356.2291   -1199.5736   -1356.2291    316.11593    10804.272            0            0   -12476.617   -8.5099585    1231.2637    13.265771    16.132935    14.666297    3138.8196 
   68000    306.62038   -1372.1779   -1197.6082   -1372.1779    305.96518    10798.792            0            0   -12476.935   -8.3041288   -258.17677    13.179864     16.31279    14.960998    3216.6198 
   68500    292.02518   -1377.8978   -1211.6377   -1377.8978    321.63288    10777.375            0            0   -12476.906   -8.4728499    723.54878    13.272897    16.221785    14.641984    3152.5667 
   69000    304.69844   -1387.8412   -1214.3658   -1387.8412    312.27734    10776.514            0            0   -12476.632   -8.3881435    -237.7811    13.450648    16.064327    14.737445    3184.4024 
   69500    277.58062   -1382.4666   -1224.4303   -1382.4666    301.78851    10792.356            0            0   -12476.611   -8.3190939   -914.78095    13.361251    16.360311    14.688555    3210.8334 
   70000    299.95845   -1368.0023   -1197.2256   -1368.0023    295.04286    10813.906            0            0   -12476.951   -8.3307699   -850.27358    13.294371    16.182056    14.904149    3206.3333 
   70500    286.09459   -1387.5089   -1224.6253   -1387.5089    269.42533    10819.641            0            0   -12476.575    -8.227103   -3051.5149    13.174956    16.520661    14.916614    3246.7352 
   71000    312.21639   -1374.2968   -1196.5412   -1374.2968    312.79963    10789.586            0            0   -12476.682   -8.3960889     69.47949    13.456022    16.122248    14.664744     3181.389 
   71500    313.32441   -1360.0662   -1181.6798   -1360.0662    306.86273    10809.389            0            0   -12476.318   -8.3477037     389.1335    13.513973    16.137409    14.672696     3199.829 
   72000    267.60648   -1376.8063   -1224.4486   -1376.8063    303.79462    10794.848            0            0   -12475.449   -8.3802734   -390.30787    13.169466    16.413335    14.745876     3187.393 
   72500    293.39138   -1375.3676   -1208.3297   -1375.3676    301.46106    10799.869            0            0   -12476.697   -8.3712943    -402.6295    13.162306    16.186298    14.976891    3190.8118 
   73000    305.40947   -1397.7867   -1223.9065   -1397.7867     318.7629    10760.114            0            0   -12476.664   -8.3931829   -8.2492132    13.294646    16.298679    14.687164    3182.4905 
   73500    299.55677   -1375.4862   -1204.9381   -1375.4862     307.8025    10793.206            0            0   -12476.495   -8.4904286   -105.41565     13.32774    15.952851    14.796853    3146.0396 
   74000    292.80294   -1377.6975   -1210.9947   -1377.6975    261.05061    10837.779            0            0   -12476.527   -8.1638734   -3828.1652    13.436316    16.540326    14.722218    3271.8813 
   74500    299.34637   -1388.2973    -1217.869   -1388.2973    322.47024    10766.566            0            0   -12477.333   -8.5098948    837.37534    13.072952    16.087132    14.925102    3138.8431 
   75000     277.7372   -1374.8193   -1216.6939   -1374.8193    306.37398     10795.77            0            0   -12476.963   -8.4660088    21.380819    13.100559    16.295435    14.779484    3155.1142 
   75500    327.64149   -1392.4524   -1205.9148   -1392.4524    301.29377    10782.946            0            0   -12476.692   -8.4084861    -849.0489    13.474689    16.122582    14.622534    3176.6984 
   76000    326.67837   -1372.3796   -1186.3902   -1372.3796    328.17181    10775.486            0            0   -12476.038   -8.5163284     1898.958    13.230379    16.123645    14.702998    3136.4719 
   76500      298.564   -1381.3017   -1211.3188   -1381.3017    324.36795    10770.792            0            0   -12476.462   -8.3558392     668.3554    13.288838    16.281802     14.77455    3196.7136 
   77000    287.82954   -1362.7835   -1198.9121   -1362.7835    294.09352    10819.303            0            0    -12476.18   -8.4814479   -685.21743    13.148537    16.143509    14.837079    3149.3709 
   77500    307.32681   -1385.0159   -1210.0441   -1385.0159    293.00203     10798.54            0            0   -12476.558   -8.4250579   -1124.6394    13.289423    16.491236    14.466437      3170.45 
   78000    292.14145   -1375.5528   -1209.2265   -1375.5528    297.11989    10803.864            0            0   -12476.536   -8.4484109   -990.93932    13.638259    15.422169    15.031918    3161.6863 
   78500    293.27097   -1340.0621   -1173.0927   -1340.0621    294.80345    10841.206            0            0   -12476.071   -8.3774757   -26.251321    13.311201    16.467609    14.545641    3188.4575 
   79000    300.13612   -1390.4615   -1219.5836   -1390.4615    311.83512    10774.461            0            0   -12476.757   -8.3893735   -211.01799    13.271369     16.08441    14.915693    3183.9356 
   79500    299.30669   -1390.0493   -1219.6436   -1390.0493    328.45173    10758.349            0            0    -12476.85   -8.4137606    982.84961    13.244339    16.320466    14.687261     3174.707 
   80000    296.29534   -1385.8725   -1217.1813   -1385.8725    326.13356    10764.432            0            0   -12476.438   -8.4320501    919.45177    13.286502    16.059639    14.846161    3167.8209 
   80500    315.50542   -1364.7747   -1185.1465   -1364.7747    293.64757    10817.269            0            0   -12475.692    -8.393814   -537.51673    13.257612    16.044673    14.960231    3182.2512 
   81000    294.09224   -1367.9038   -1200.4669   -1367.9038    314.49449    10794.247            0            0   -12476.645    -8.419847    876.33042    13.176328    16.510726    14.582401    3172.4121 
   81500    293.54187   -1351.1926    -1184.069   -1351.1926    282.92888    10841.703            0            0   -12475.824   -8.3124482    -1428.851    13.349521    16.003683    15.041088    3213.4004 
   82000    300.57136    -1356.528   -1185.4022    -1356.528    307.36172    10811.347            0            0   -12475.236   -8.4766102    806.36025    13.259619     16.32691    14.555815    3151.1682 
   82500    334.74317   -1374.7675   -1184.1866   -1374.7675    275.49274    10826.266            0            0   -12476.526    -8.177045    -2711.395     13.60605    15.834527    15.162131     3266.611 
   83000    297.27287   -1377.9917    -1208.744   -1377.9917     338.2901    10760.171            0            0   -12476.453    -8.500436    2517.3532    13.024034    16.478729    14.641426    3142.3359 
   83500    297.26544   -1374.6036     -1205.36   -1374.6036    304.04351    10796.973            0            0    -12475.62   -8.4308094     43.16921    13.206802     16.06509    14.932884    3168.2871 
   84000    282.66229   -1381.4754   -1220.5459   -1381.4754    297.95018    10796.906            0            0   -12476.331   -8.2667127   -1202.5872    13.415342    16.297822    14.778475    3231.1786 
   84500    323.41029   -1391.5214   -1207.3927   -1391.5214     335.4611    10749.201            0            0   -12476.183   -8.5400068    1664.6002    13.331105     16.15026    14.527468    3127.7756 
   85000    308.75284   -1383.3343   -1207.5506   -1383.3343    312.70081    10780.966            0            0   -12477.002   -8.3597416   -259.49599     13.31056    15.767234    15.224713    3195.2214 
   85500      288.907   -1390.7506   -1226.2658   -1390.7506    334.53097    10751.175            0            0   -12476.456   -8.6053767    2072.1012    13.122018    16.356773     14.46191    3104.0157 
   86000    326.47095   -1363.0254   -1177.1541   -1363.0254    343.53914    10769.245            0            0   -12475.809   -8.4446528    2669.9248    13.327172    15.936606    14.892862    3163.0933 
   86500    304.99768   -1398.7967   -1225.1509   -1398.7967    307.07404    10771.404            0            0   -12477.275    -8.390867   -832.90714     13.42201    16.396477    14.465013    3183.3689 
   87000    328.40577   -1395.9652   -1208.9924   -1395.9652    324.98315    10756.049            0            0   -12476.997   -8.4830106    706.10769    13.325282    15.870557    14.889332    3148.7907 
   87500    294.96742   -1381.5953   -1213.6601   -1381.5953    305.04474     10788.65            0            0    -12475.29   -8.3823477   -393.56048    13.156002    16.316899    14.844534    3186.6043 
   88000    290.97007   -1372.1779   -1206.5186   -1372.1779    308.63978    10795.207            0            0   -12476.024   -8.3925028    183.78713     13.25047    16.352735    14.688607    3182.7484 
   88500    313.42042   -1368.6485   -1190.2074   -1368.6485    309.62602    10798.843            0            0   -12477.118   -8.3459403    139.39588    13.505508    15.890683    14.913001    3200.5051 
   89000    296.11247   -1366.6524   -1198.0653   -1366.6524    334.87209      10775.3            0            0   -12476.824   -8.5515692    2295.3868    13.240158    16.378297    14.404098    3123.5466 
   89500    305.84907   -1383.8491   -1209.7186   -1383.8491    300.79211    10791.328            0            0   -12475.969   -8.3742535   -831.87066    13.276901    16.080374    14.940145    3189.6843 
   90000    293.47194    -1390.736   -1223.6522    -1390.736    335.92129    10749.911            0            0   -12476.568   -8.5409169    1770.4759    13.160835    16.321509     14.55947    3127.4423 
   90500    299.13162   -1355.0798   -1184.7738   -1355.0798    302.56215    10817.636            0            0   -12475.277   -8.4267224    10.999613    13.340078    15.974804     14.87446    3169.8238 
   91000    306.82244   -1361.8742   -1187.1895   -1361.8742    276.21057    10838.718            0            0   -12476.803   -8.3346336    -1594.882    13.457578    16.756886    14.211734    3204.8469 
   91500    299.77877   -1379.4102   -1208.7357   -1379.4102    307.69501    10790.592            0            0   -12477.697   -8.4353854   -95.555472    13.228197    15.975864    14.983865    3166.5684 
   92000    297.79314   -1380.0605   -1210.5166   -1380.0605    297.61253    10797.951            0            0   -12475.624   -8.3353616   -957.37218    13.241893    16.368295    14.784813     3204.567 
   92500    316.16176   -1363.4394   -1183.4375   -1363.4394     308.1206    10804.645            0            0   -12476.205   -8.4571136    362.15028    13.341491    15.986546    14.808553    3158.4328 
   93000    298.71712   -1381.0541    -1210.984   -1381.0541    298.39363    10796.421            0            0   -12475.869   -8.3687244   -1116.8866    13.589272    16.250614    14.453352    3191.7917 
   93500    304.45439   -1369.5862   -1196.2497   -1369.5862    309.27007    10797.553            0            0    -12476.41   -8.5134536    615.64039    13.204117     16.11586    14.744334     3137.531 
   94000    299.77225   -1389.4361   -1218.7653   -1389.4361    312.78066    10775.327            0            0   -12477.544   -8.3095153   -553.49388      13.2081    16.329902    14.903703    3214.5346 
   94500     309.8037   -1399.2694   -1222.8874   -1399.2694    318.07513    10759.561            0            0   -12476.906   -8.5099425    176.19519    13.268621    16.270823    14.538911    3138.8255 
   95000    299.34535   -1353.6323   -1183.2046   -1353.6323    303.44278    10819.325            0            0   -12476.401   -8.4065531   -46.452475    13.614002    15.574003     14.98614    3177.4289 
   95500    285.47586   -1386.1659   -1223.6346   -1386.1659    286.10196    10804.126            0            0   -12476.394   -8.3343677   -1803.7241    13.248687    16.642842    14.535193    3204.9492 
   96000    292.15484   -1372.4209    -1206.087   -1372.4209    308.65604    10794.877            0            0   -12475.954   -8.3824747    55.661013    13.228862    16.106114    14.955753     3186.556 
   96500    298.45378   -1359.7114   -1189.7913   -1359.7114    293.05852    10823.995            0            0   -12476.765   -8.3200536   -747.07725    13.313011    16.525955    14.592336    3210.4631 
   97000    355.64579   -1385.0639   -1182.5824   -1385.0639    290.26433     10801.06            0            0   -12476.388   -8.3704809   -1614.0371    13.561354    15.842003    14.853549    3191.1219 
   97500    334.83945   -1396.9728   -1206.3371   -1396.9728    306.36577     10773.52            0            0   -12476.859   -8.3902089   -406.88583    13.242862    16.506108    14.564463    3183.6186 
   98000    303.36924   -1352.8024   -1180.0838   -1352.8024    291.92151    10830.585            0            0   -12475.309   -8.1829313   -956.36692    13.204345    16.210492     15.25007    3264.2612 
   98500    318.07405   -1380.8564   -1199.7658   -1380.8564    339.79534    10756.411            0            0   -12477.063   -8.5466668    2328.1626    13.220759    16.268728    14.530717    3125.3383 
   99000     318.2462   -1381.7946    -1200.606   -1381.7946    317.96305     10776.87            0            0   -12476.628   -8.5000803    842.79204    13.312802    16.107934    14.654178    3142.4674 
   99500    314.47629   -1381.9345   -1202.8923   -1381.9345    268.29338    10825.624            0            0   -12475.852   -8.2117298   -3345.4939    13.497268    16.294387    14.790241    3252.8134 
  100000    324.14241    -1357.577   -1173.0315    -1357.577    316.19155    10801.229            0            0   -12474.998   -8.5899338    1463.8472     13.10131    16.216421    14.636399    3109.5961 
  100500    270.14468   -1395.5632   -1241.7604   -1395.5632    320.01855    10760.694            0            0   -12476.276   -8.5737626    407.89399    13.131163    16.050978     14.78147    3115.4612 
  101000    291.25761    -1389.577   -1223.7539    -1389.577    296.21325    10790.916            0            0   -12476.707    -8.403222   -1085.6364    13.409666    16.355455    14.493304    3178.6884 
  101500    285.87033   -1370.4962   -1207.7403   -1370.4962    308.89121    10797.929            0            0   -12477.316   -8.4122513   -166.74242    13.468151    16.001485     14.73375    3175.2766 
  102000    270.21202   -1355.1792   -1201.3381   -1355.1792    330.82247    10790.253            0            0   -12476.255   -8.5977244    2531.9325    13.074873    16.361917    14.522408    3106.7784 
  102500    276.51945   -1382.8923   -1225.4602   -1382.8923    295.49924    10797.997            0            0   -12476.388   -8.4158656   -1071.8797    13.091192    16.045226    15.110192    3173.9129 
  103000    301.36853   -1376.6294   -1205.0499   -1376.6294    316.68933    10784.081            0            0   -12477.399   -8.5003162    700.96888    13.228482    16.307817    14.566422    3142.3801 
  103500    314.54191   -1366.1388   -1187.0591   -1366.1388    318.54306    10792.181            0            0   -12476.863   -8.4618723     1118.412    13.435563    16.058547    14.630704    3156.6566 
  104000    292.44426   -1373.2099   -1206.7112   -1373.2099    322.58189     10781.07            0            0   -12476.861    -8.450221    975.97326    13.310873    16.254938     14.60945     3161.009 
  104500    241.36899   -1361.4397   -1224.0199   -1361.4397    300.93592    10814.043            0            0   -12476.418   -8.4078407    150.79574    12.998751    16.299092    14.994924    3176.9423 
  105000     290.1214   -1396.4698   -1231.2936   -1396.4698    305.24765    10775.352            0            0    -12477.07   -8.4894702   -779.63301    13.225982    16.251217    14.638595    3146.3948 
  105500    323.92111   -1392.9346   -1208.5151   -1392.9346    318.56261    10765.405            0            0   -12476.902   -8.4832461    388.73113    13.557299     15.99996    14.515755    3148.7033 
  106000    304.15735   -1343.4467   -1170.2794   -1343.4467    306.13774    10826.405            0            0   -12475.989   -8.2895836    773.54731    13.348316    16.265908    14.840765    3222.2638 
  106500    295.47131   -1395.9922   -1227.7702   -1395.9922    336.72289    10744.522            0            0   -12477.237   -8.4697004    1381.6441    13.190775    16.359322    14.614708     3153.739 
  107000    331.65212   -1396.7016   -1207.8806   -1396.7016    366.67002    10713.738            0            0    -12477.11   -8.5406332    3703.0528    13.221827    15.856928    14.917402    3127.5462 
  107500    318.25794   -1374.6079   -1193.4126   -1374.6079    261.94118     10839.33            0            0   -12475.879   -8.2010915   -3190.1888    13.517826    16.753171    14.381967    3257.0329 
  108000    307.09739   -1397.8272    -1222.986   -1397.8272    318.68691    10760.474            0            0   -12476.988   -8.3670349   -187.45998    13.429899    15.957314    14.896687    3192.4362 
  108500    282.12873   -1385.5471   -1224.9214   -1385.5471     326.0475    10764.733            0            0   -12476.328    -8.355091    808.91345     13.25081    16.341241    14.764378    3196.9999 
  109000    308.16733   -1389.2025   -1213.7522   -1389.2025    267.95981    10819.274            0            0   -12476.436   -8.2090246   -3449.5604     13.22842     16.51984    14.889785    3253.8853 
  109500    272.22959   -1389.7913   -1234.8015   -1389.7913     329.3801    10757.963            0            0   -12477.134   -8.5398617    1030.1587    13.308412    15.941347    14.743199    3127.8287 
  110000     323.0265   -1376.6314   -1192.7212   -1376.6314    309.15945    10790.969            0            0    -12476.76   -8.4234296    184.85601    13.352712    16.219637    14.641792    3171.0628 
  110500    292.26754   -1352.6867   -1186.2886   -1352.6867     284.3625    10838.697            0            0   -12475.746   -8.2080168   -1454.3533     13.36929    16.242805    14.986016    3254.2848 
  111000    301.37631   -1395.4172   -1223.8332   -1395.4172    309.75433    10772.068            0            0    -12477.24   -8.5619543   -281.00443    13.141572    16.205929    14.648719    3119.7579 
  111500    341.01278   -1361.8727   -1167.7223   -1361.8727    279.24897    10834.947            0            0   -12476.069   -8.2651521   -1628.3051    13.330642    16.160962    15.001154    3231.7886 
  112000    306.17982   -1371.2569   -1196.9381   -1371.2569    333.61686    10771.141            0            0   -12476.015   -8.5224772    2023.8902    13.352412     16.11286    14.567855     3134.209 
  112500    293.77266   -1365.8065   -1198.5516   -1365.8065    300.09595    10809.618            0            0    -12475.52   -8.3080158   -645.24555    13.388758    16.235037    14.791183    3215.1148 
  113000    312.50374   -1388.3768   -1210.4575   -1388.3768    320.80982    10767.133            0            0    -12476.32   -8.4453617     709.6711    13.033516    16.137808    15.037284    3162.8278 
  113500    306.58148   -1382.7394    -1208.192   -1382.7394    313.70337    10780.152            0            0   -12476.595   -8.4297362    310.68387    13.207337    16.345775    14.677735    3168.6905 
  114000    308.61284   -1393.2923   -1217.5883   -1393.2923    314.60618    10769.348            0            0   -12477.247   -8.3423244   -139.96117    13.402787    16.061016    14.874371    3201.8924 
  114500    319.54556   -1383.7335   -1201.8051   -1383.7335    293.50806    10799.222            0            0   -12476.464   -8.3803246   -1121.8665    13.305668    16.400567    14.606205    3187.3735 
  115000    277.28602   -1372.4057   -1214.5372   -1372.4057    307.19764    10796.623            0            0   -12476.226   -8.4026173    -271.6468    13.150201    15.954259    15.152008    3178.9172 
  115500    278.40588   -1385.6554   -1227.1493   -1385.6554    305.03699    10786.314            0            0   -12477.007   -8.4373896   -330.43018    13.179939      16.4492     14.60251    3165.8162 
  116000    301.87378   -1379.1521   -1207.2849   -1379.1521    286.01238    10811.438            0            0   -12476.602   -8.3328788   -1813.3994    13.542368    16.029805    14.766443    3205.5218 
  116500    276.56354   -1367.6436   -1210.1864   -1367.6436    299.19701    10809.635            0            0   -12476.475   -8.4041122   -560.72472    13.351176    16.172869    14.719578    3178.3517 
  117000    284.93047   -1384.8798    -1222.659   -1384.8798    302.89663    10788.762            0            0   -12476.538   -8.3937373   -730.57625    13.232121     16.47948    14.593701    3182.2803 
  117500    306.54109    -1381.486   -1206.9615    -1381.486    322.14031    10773.466            0            0   -12477.092   -8.5286543    1001.1481    13.089888    15.828246    15.116268     3131.939 
  118000    302.36459   -1401.0762   -1228.9295   -1401.0762     357.7293    10718.588            0            0   -12477.394   -8.6190906    3274.5147    13.200386    16.377935    14.334633    3099.0769 
  118500    285.31392   -1360.7179   -1198.2788   -1360.7179    292.92583    10822.174            0            0   -12475.818   -8.3659078   -689.35297    13.499178    15.883002    14.891582    3192.8663 
  119000    310.16433   -1389.3142   -1212.7269   -1389.3142    295.55519    10791.196            0            0   -12476.066   -8.4107309   -1223.9143    13.255793    16.330283    14.671031    3175.8506 
  119500    282.43298   -1375.4501   -1214.6512   -1375.4501    295.79899    10805.831            0            0    -12477.08     -8.37126    -750.5216    13.278673    16.162332    14.867717    3190.8249 
  120000    287.35016   -1400.2465    -1236.648   -1400.2465    296.83858    10780.119            0            0   -12477.204   -8.3669741   -1439.6798    13.194543    16.293758    14.849429    3192.4594 
  120500    317.80556   -1377.0599   -1196.1221   -1377.0599    315.25895    10784.918            0            0   -12477.237   -8.4944909    1065.1839    13.259153    16.179273    14.658235    3144.5351 
  121000    312.91809   -1364.0451   -1185.8899   -1364.0451    290.69041    10821.816            0            0   -12476.552   -8.3048969   -1145.2748    13.421982    16.019652    14.958561    3216.3222 
  121500    284.33486   -1363.9276   -1202.0459   -1363.9276    324.24076    10787.163            0            0   -12475.331   -8.4934995    1606.5673     13.38449    16.457899    14.276801    3144.9022 
  122000    277.20542    -1382.317   -1224.4943    -1382.317    311.70747    10782.458            0            0   -12476.482   -8.4822589   -135.57269    13.289591    15.662036    15.129426    3149.0697 
  122500    292.78494   -1361.9891   -1195.2965   -1361.9891    297.13986    10818.124            0            0   -12477.253   -8.3677182   -196.75103    13.076751    16.568761    14.733192    3192.1755 
  123000    360.78849   -1381.2548   -1175.8454   -1381.2548      302.257    10792.991            0            0   -12476.503   -8.4122874   -173.83821    13.274519    16.088982    14.867308     3175.263 
  123500    319.76214   -1363.4387    -1181.387   -1363.4387    329.55484    10783.334            0            0   -12476.327   -8.4938846    2025.1927     13.50378    16.176271    14.396393    3144.7596 
  124000    315.90557   -1366.6413   -1186.7853   -1366.6413    293.62839    10816.138            0            0   -12476.408   -8.4004118   -703.23082    13.336443    16.225224    14.694761    3179.7518 
  124500    306.31915   -1397.1306   -1222.7325   -1397.1306    308.68353    10770.493            0            0   -12476.307   -8.3824246   -615.64583    13.109313    16.241046    14.966844     3186.575 
  125000    277.58534   -1387.2174   -1229.1784   -1387.2174     321.9992    10768.131            0            0   -12477.348   -8.5393538    1042.0141    13.143607    16.245211    14.649706    3128.0148 
  125500    287.07865   -1386.5399    -1223.096   -1386.5399    295.49078    10794.897            0            0   -12476.927   -8.3614129   -1457.1703    13.459256    16.078075     14.76247    3194.5827 
  126000    272.66627   -1401.4087   -1246.1704   -1401.4087     312.9032    10762.973            0            0   -12477.285   -8.4649635   -139.52441    13.165895    16.633405     14.40911    3155.5038 
  126500    302.43102   -1378.9954   -1206.8109   -1378.9954    302.07394    10795.525            0            0   -12476.594   -8.4142393   -453.17505    13.049555    15.994533    15.209385    3174.5264 
  127000     254.0459   -1391.0412   -1246.4041   -1391.0412    320.61197    10765.246            0            0   -12476.899   -8.4572551    405.09361    13.255195    16.374724    14.551382    3158.3799 
  127500    286.56246   -1353.8703   -1190.7203   -1353.8703    285.08633    10837.612            0            0   -12476.569   -8.4683614   -901.83191    13.410668    16.020588    14.681335    3154.2377 
  128000    283.75624   -1373.9735   -1212.4212   -1373.9735    310.25396    10791.952            0            0    -12476.18   -8.3688007   -31.148707    13.357107    16.216623    14.735258    3191.7626 
  128500     324.1957   -1382.2709    -1197.695   -1382.2709    306.40574     10788.01            0            0   -12476.687   -8.4299111    -36.20986    13.080831     16.51364    14.668735    3168.6247 
  129000    282.12047   -1377.0787   -1216.4578   -1377.0787    313.86228     10785.75            0            0   -12476.691   -8.4125325    159.84763    13.291657    16.071431    14.863921    3175.1705 
  129500    311.54987   -1398.8337   -1221.4576   -1398.8337     295.6569    10781.586            0            0   -12476.076   -8.2994985    -1602.446    13.388176    16.434682    14.627134    3218.4143 
  130000    301.96372   -1377.6941   -1205.7757   -1377.6941    335.18802    10764.234            0            0   -12477.116   -8.5492329    1829.8067     13.26558    15.900093    14.812922    3124.4002 
  130500    288.53122   -1370.6775   -1206.4066   -1370.6775    303.38663    10802.312            0            0   -12476.376   -8.3845757    10.014347    13.100722    16.669002    14.588407    3185.7575 
  131000    286.69431    -1379.285     -1216.06    -1379.285    311.72952    10785.046            0            0   -12476.061   -8.4109598   -68.431064     13.23758     15.95684     15.03463    3175.7642 
  131500    312.74557   -1371.6018   -1193.5449   -1371.6018    335.86115    10769.243            0            0   -12476.706   -8.5052593    2134.3206    13.422781    16.172784    14.467016    3140.5538 
  132000    298.72962   -1375.6368   -1205.5597   -1375.6368    304.33202    10795.945            0            0   -12475.914   -8.3104967    -312.4693    13.337507    16.261951    14.819021     3214.155 
  132500    303.97059   -1388.7761   -1215.7151   -1388.7761    332.90503     10755.59            0            0   -12477.271   -8.4705411    1332.1731    13.158895    16.157584    14.831559     3153.426 
  133000    311.95709    -1388.003   -1210.3949    -1388.003    314.93978    10773.797            0            0    -12476.74    -8.540294    337.78567    13.187658    16.319614    14.532604    3127.6704 
  133500    325.43451   -1382.8453   -1197.5642   -1382.8453    282.88106    10810.597            0            0   -12476.323   -8.2714822   -1872.0608    13.389034    16.111158    14.970436    3229.3154 
  134000    284.88674    -1383.618   -1221.4221    -1383.618     307.2744    10785.718            0            0   -12476.611    -8.435213   -161.76046    13.271862    16.264402    14.669922    3166.6331 
  134500    299.52165   -1382.3668   -1211.8387   -1382.3668    308.49536    10785.089            0            0   -12475.951   -8.3603214   -333.22043    13.218065    16.130651    14.984803    3194.9997 
  135000    298.79047   -1370.1197   -1200.0079   -1370.1197    336.97783    10768.347            0            0   -12475.445   -8.4886629     2484.038    13.090104    16.414597    14.644724     3146.694 
  135500    293.16005   -1390.4536   -1223.5474   -1390.4536    300.66057    10785.857            0            0   -12476.971   -8.3858882   -1162.2426    13.516327    15.848717    14.869348    3185.2589 
  136000    275.07254   -1376.2765   -1219.6682   -1376.2765    310.05452    10789.981            0            0   -12476.312   -8.3809177   -272.43877    13.456058    16.204183    14.616966     3187.148 
  136500    304.71957   -1377.1664   -1203.6789   -1377.1664    294.74784     10805.06            0            0   -12476.974   -8.4385015    -921.7426    13.162091    16.245605    14.803612    3165.3991 
  137000    304.23908   -1372.1097   -1198.8958   -1372.1097    282.77591    10821.162            0            0   -12476.047   -8.3157813   -1641.3945    13.102713     16.23709    15.098066    3212.1125 
  137500    308.99699   -1370.5361   -1194.6134   -1370.5361    313.45068    10792.218            0            0   -12476.204    -8.425141    647.27443    13.339679    16.332416    14.551937    3170.4187 
  138000    313.06265   -1375.0013   -1196.7638   -1375.0013    317.01793    10784.348            0            0   -12476.367   -8.3144292     80.10875    13.436895    16.022956    14.921751    3212.6348 
  138500    316.10031   -1374.1841   -1194.2172   -1374.1841     313.0998    10789.496            0            0    -12476.78   -8.4261539    613.40293    13.248747    16.459946    14.536545    3170.0376 
  139000    298.34057   -1377.9237    -1208.068   -1377.9237    332.21827    10765.798            0            0    -12475.94   -8.5289079    1747.5663    13.150254    15.878567    14.998746    3131.8458 
  139500    336.50212    -1387.205   -1195.6227    -1387.205     315.0621    10773.842            0            0   -12476.109   -8.4950925    782.44345    13.182462    16.506867    14.449889    3144.3124 
  140000    341.66157   -1387.3473   -1192.8275   -1387.3473     318.0091    10770.521            0            0   -12475.878   -8.3861267    322.32795    13.390485    15.866444    14.991892    3185.1683 
  140500    292.29393   -1362.1281    -1195.715   -1362.1281    296.37986    10817.045            0            0   -12475.553   -8.3262695   -435.83167    13.348287    16.389694    14.663815    3208.0663 
  141000    315.12627   -1372.7194    -1193.307   -1372.7194    273.87469    10829.748            0            0   -12476.343   -8.1783641   -2564.9318    13.366061    16.105046    15.172668    3266.0841 
  141500    305.56987   -1381.2152   -1207.2436   -1381.2152    315.19115    10780.558            0            0   -12476.964   -8.4166253    389.87871     13.38904    16.386884    14.464718    3173.6264 
  142000    284.51331   -1390.0209   -1228.0376   -1390.0209    294.39052     10792.21            0            0   -12476.622   -8.4010478   -1406.8687    13.336062    16.144285    14.767737    3179.5111 
  142500    311.26114   -1369.4164   -1192.2046   -1369.4164    261.89897    10844.756            0            0   -12476.072   -8.2938035   -3016.7463    13.268087    16.215647    14.969162    3220.6243 
  143000    259.72102   -1373.4524   -1225.5842   -1373.4524    306.40387    10796.731            0            0   -12476.587    -8.452792   -112.85214    13.335999    16.151242    14.671082    3160.0476 
  143500    311.32619   -1379.1547   -1201.9059   -1379.1547    321.16023    10776.715            0            0    -12477.03   -8.4775533    1109.6725     13.27626    16.148776    14.696297    3150.8177 
  144000     296.4846   -1392.4585   -1223.6596   -1392.4585     336.2616    10748.481            0            0   -12477.201   -8.5801789     1789.486    13.217939    16.085651    14.641821    3113.1314 
  144500    307.32141   -1371.9607   -1196.9919   -1371.9607    294.79642    10810.421            0            0   -12477.178   -8.3023264   -985.09894     13.14122     16.39969    14.928724    3217.3181 
  145000    308.31529   -1391.3952   -1215.8606   -1391.3952    322.76222    10762.761            0            0   -12476.918   -8.4631335    844.14183    13.208333    16.150914    14.795086    3156.1861 
  145500     307.6083   -1362.9529   -1187.8208   -1362.9529     296.4708    10816.661            0            0   -12476.084   -8.3291427   -834.45826    13.738523    16.127418    14.474001    3206.9597 
  146000    278.32962   -1390.5205   -1232.0578   -1390.5205    299.81018     10786.29            0            0    -12476.62   -8.3565915   -1402.9785    13.391919    16.165398    14.765067    3196.4258 
  146500    291.09597   -1389.1547   -1223.4236   -1389.1547    361.42622    10726.796            0            0   -12477.377   -8.5581683    3719.3277    13.073595    16.170906    14.763305    3121.1381 
  147000    323.75149   -1377.8317   -1193.5087   -1377.8317    319.61893    10778.805            0            0   -12476.256   -8.4096212    800.05356    13.162865    16.298319    14.805536    3176.2697 
  147500    304.99773   -1379.2335   -1205.5878   -1379.2335    302.78384      10794.2            0            0   -12476.217    -8.384928   -535.32206    13.529356    15.993387    14.722341    3185.6236 
  148000    286.52611   -1390.4077   -1227.2785   -1390.4077    299.62238     10785.72            0            0    -12475.75   -8.3674438   -1363.9754    13.548892     16.29419    14.459872    3192.2802 
  148500    302.03107   -1371.0934   -1199.1366   -1371.0934    287.97394    10817.537            0            0   -12476.605   -8.2680387   -1500.0003    13.290993    16.243321    14.964391    3230.6604 
  149000    275.80871   -1376.3936   -1219.3662   -1376.3936    326.95177    10772.853            0            0   -12476.199   -8.4571227    1459.9892    13.068602    16.450488    14.691402    3158.4294 
  149500    310.26122   -1402.0676   -1225.4251   -1402.0676    333.41347    10741.195            0            0   -12476.676   -8.4176562    863.21747    13.283912    15.919102    15.005762    3173.2378 
  150000    304.92233   -1395.6074   -1222.0045   -1395.6074    331.07938    10750.365            0            0   -12477.052   -8.4647103    802.24759    13.537623    16.299278    14.301149    3155.5982 
  150500    308.20187   -1386.9226   -1211.4525   -1386.9226    325.53178    10764.241            0            0   -12476.695   -8.4056325    720.97688    13.322529    16.094854     14.82005    3177.7769 
  151000    294.21575   -1401.5889   -1234.0816   -1401.5889    315.90264    10759.714            0            0   -12477.206   -8.4312397   -194.42301    13.103715    16.325268    14.809746    3168.1254 
  151500    309.67793   -1373.1469   -1196.8365   -1373.1469     313.8192    10788.268            0            0   -12475.234   -8.3599693    366.59803    13.314674    16.294532    14.727081    3195.1343 
  152000    349.34285   -1374.6079   -1175.7149   -1374.6079    311.08648     10790.43            0            0   -12476.125   -8.3938207    327.99732    13.389631    16.090414    14.770605    3182.2487 
  152500    333.13101   -1372.7698   -1183.1067   -1372.7698    314.39337    10789.306            0            0   -12476.469   -8.4935285    1088.5515    13.251561    16.350855    14.514369    3144.8914 
  153000    291.82314   -1402.0575   -1235.9124   -1402.0575    309.55296    10765.039            0            0   -12476.649   -8.3568654   -677.67526    13.090413    16.173155    15.097405     3196.321 
  153500    292.68331   -1359.8817    -1193.247   -1359.8817    306.56399    10810.347            0            0   -12476.793   -8.3446486     177.7279    13.247073    16.559952    14.591729    3201.0005 
  154000     310.8285   -1361.6348   -1184.6693   -1361.6348      292.581    10822.791            0            0   -12477.007   -8.1815921   -1235.0591    13.658058     15.93767    14.998305    3264.7955 
  154500    293.95485   -1395.0773   -1227.7186   -1395.0773    301.55626    10780.576            0            0    -12477.21   -8.4108804   -899.40375    13.287795    16.564214    14.428747    3175.7942 
  155000    324.12458    -1355.974   -1171.4387    -1355.974    300.44443    10819.389            0            0   -12475.807   -8.3196457   -120.87322    13.241916    16.174402    14.990285    3210.6205 
  155500    307.05336   -1379.3509   -1204.5347   -1379.3509    266.04552     10831.73            0            0   -12477.126   -8.2339109   -3261.9168    13.337286    16.391651    14.838755    3244.0507 
  156000    292.42084   -1365.7185   -1199.2331   -1365.7185    298.11403    10812.333            0            0   -12476.165   -8.3231204   -708.20307    13.506664    16.031736     14.82105    3209.2801 
  156500    342.58277   -1355.3272   -1160.2829   -1355.3272    274.32418    10846.661            0            0   -12476.312   -8.2020937   -2026.0993    13.443533    16.370266    14.797895    3256.6349 
  157000    306.55178   -1395.8649   -1221.3343   -1395.8649    300.86123    10780.132            0            0   -12476.858   -8.3295726   -1008.8716    13.254955    16.343615    14.802829    3206.7942 
  157500    292.08491   -1378.1958   -1211.9018   -1378.1958    317.89061    10780.457            0            0   -12476.544   -8.4808256    660.66349    13.182761     16.04598      14.8896    3149.6019 
  158000    286.76513   -1380.1391   -1216.8737   -1380.1391    299.74007    10796.468            0            0   -12476.348   -8.4125149   -515.56486    13.307322    16.334462    14.607384    3175.1771 
  158500    270.16795   -1379.2086   -1225.3926   -1379.2086    301.71982    10795.877            0            0   -12476.805   -8.3504311   -876.70106    13.344266     16.05265    14.932876    3198.7839 
  159000    316.87171   -1379.1961     -1198.79   -1379.1961    297.98909    10798.574            0            0    -12475.76   -8.3602399   -532.61222    13.207581    16.506184    14.655651    3195.0309 
  159500    295.34863   -1395.7727   -1227.6205   -1395.7727    362.93994    10718.657            0            0    -12477.37   -8.6146292    3478.3382      13.2247    15.778889    14.859184    3100.6819 
  160000    289.30525   -1377.5946   -1212.8831   -1377.5946     299.8948    10798.778            0            0   -12476.268    -8.350522   -750.18635    13.555919    16.348583    14.433481    3198.7491 
  160500    272.76826    -1369.926   -1214.6295    -1369.926    322.27327    10783.894            0            0   -12476.094   -8.4659971    1081.9246    13.292807    16.031572    14.805494    3155.1186 
  161000    288.74263   -1391.0842    -1226.693   -1391.0842    270.53989    10815.267            0            0   -12476.891   -8.2728096   -3250.2439    13.267465    16.403346    14.836121    3228.7972 
  161500    309.42718    -1396.535   -1220.3674    -1396.535    310.12387    10770.956            0            0   -12477.615    -8.424346   -261.73115    13.255864    16.118071    14.840089    3170.7179 
  162000    323.47845   -1393.5212   -1209.3537   -1393.5212    297.31835    10786.021            0            0   -12476.861    -8.491823    -1007.349    13.332317    15.980863     14.76342     3145.523 
  162500    289.79679   -1390.6579   -1225.6665   -1390.6579    299.48356    10786.588            0            0    -12476.73   -8.4008609   -854.66206    13.285715     16.34992    14.637585    3179.5819 
  163000    324.28203   -1364.7458   -1180.1208   -1364.7458    317.28205    10794.824            0            0   -12476.852   -8.4356173    1024.9147    13.217513    15.906052    15.061381    3166.4813 
  163500    300.19495   -1377.7986   -1206.8872   -1377.7986    300.70766    10798.013            0            0   -12476.519   -8.3039444   -505.52499    13.387763     16.61191    14.463779    3216.6912 
  164000     297.9191   -1379.6342   -1210.0185   -1379.6342    339.17999     10757.97            0            0   -12476.784   -8.4939004    1878.6583    13.441583    15.478674    15.114802    3144.7537 
  164500    306.58267   -1390.5009   -1215.9528   -1390.5009    318.84558    10766.722            0            0   -12476.069   -8.3283844    42.399307    13.290602    16.392252    14.721421    3207.2517 
  165000    297.66068   -1400.4866    -1231.018   -1400.4866    318.53225    10758.361            0            0    -12477.38     -8.36244   -100.30368    13.200932     16.13413    14.997216    3194.1903 
  165500    298.04362   -1363.5857   -1193.8992   -1363.5857    324.80869    10787.551            0            0   -12475.946   -8.5219177    1990.1331    13.227734    16.373963    14.471622    3134.4148 
  166000    325.70094   -1375.3513   -1189.9184   -1375.3513    301.36298    10799.767            0            0   -12476.481   -8.2328539   -704.09561    13.575093     16.00126    14.936416    3244.4672 
  166500    328.29222   -1374.5071    -1187.599   -1374.5071    312.15357    10790.161            0            0   -12476.822   -8.3213898    312.32971    13.280166    16.386721    14.750352    3209.9476 
  167000    310.56407   -1361.4179    -1184.603   -1361.4179    313.77016    10800.498            0            0   -12475.686   -8.4255458    955.02778    13.139943    16.331668    14.773103    3170.2664 
  167500    296.19199   -1382.1584    -1213.526   -1382.1584    302.91793    10790.806            0            0   -12475.882   -8.2734213     -976.987    13.620568    16.075122    14.745489    3228.5585 
  168000    305.88571   -1358.3107   -1184.1594   -1358.3107    305.73229    10812.161            0            0   -12476.204   -8.3769002    158.26783    13.385861    16.351051    14.568622    3188.6765 
  168500    296.17548   -1383.9768   -1215.3539   -1383.9768    320.09941    10772.647            0            0   -12476.723   -8.3932813    445.61769    13.229811    16.090159    14.950235    3182.4532 
  169000    305.80233   -1382.2694   -1208.1655   -1382.2694    308.10664    10786.175            0            0   -12476.551   -8.3910688   -172.26886    13.139327    16.625023    14.572738    3183.2923 
  169500    295.83653   -1382.4077   -1213.9777   -1382.4077    344.31456    10750.377            0            0   -12477.099     -8.47026    2282.0142    13.380272    15.739167    14.974432    3153.5307 
  170000    302.91595    -1376.769   -1204.3084    -1376.769    307.62719    10792.058            0            0   -12476.454   -8.3247798   -262.26781    13.306601    16.488972    14.623803    3208.6404 
  170500    294.68789   -1384.8596   -1217.0835   -1384.8596    361.95575    10729.875            0            0    -12476.69   -8.5381438    3478.9578    13.264068    15.944174    14.792841    3128.4581 
  171000     317.6887   -1379.7199   -1198.8487   -1379.7199    265.97397    10831.233            0            0   -12476.926   -8.1967014   -3135.3424    13.405649    16.557963    14.681145    3258.7773 
  171500    291.60778   -1370.6019   -1204.5795   -1370.6019    294.37602    10811.518            0            0   -12476.496   -8.3573783   -737.90734    13.285147    16.254394    14.800847    3196.1249 
  172000    300.12718   -1390.4818    -1219.609   -1390.4818    327.97864    10758.722            0            0   -12477.183    -8.465776    1081.5539    13.239527    16.107395    14.795486     3155.201 
  172500     287.2412   -1373.2916   -1209.7552   -1373.2916    339.39141    10762.748            0            0   -12475.431   -8.4965466    2408.5569    13.303985     16.49342     14.32712    3143.7743 
  173000    307.34241   -1394.3652   -1219.3845   -1394.3652     276.5389    10805.962            0            0   -12476.867   -8.3078939   -2983.0593    13.353277    15.876473    15.165648     3215.162 
  173500    282.89085   -1376.0888   -1215.0292   -1376.0888    319.02678    10781.377            0            0   -12476.493   -8.5284898    1137.9031    13.186164    16.388643    14.493063    3131.9994 
  174000    285.22521   -1372.8543   -1210.4657   -1372.8543    294.42202    10808.829            0            0   -12476.106   -8.2376427   -1332.9846    13.387562      15.9637    15.172453    3242.5811 
  174500    280.25766   -1385.8082   -1226.2477   -1385.8082    300.99426    10790.544            0            0   -12477.347   -8.4096009   -880.75514     13.24323    16.460157    14.571039    3176.2774 
  175000    269.96162   -1401.3267   -1247.6282   -1401.3267    306.38066    10769.089            0            0   -12476.796   -8.4714902   -980.52035     13.35073    16.080786    14.686615    3153.0727 
  175500       314.31   -1366.0609   -1187.1133   -1366.0609    297.61551    10813.052            0            0   -12476.729   -8.2156233   -962.20802    13.438836    16.214531    14.920633    3251.2718 
  176000    315.95475    -1385.443    -1205.559    -1385.443    322.67475    10769.007            0            0   -12477.125   -8.3776509    888.43972    13.232139    16.308114    14.775349    3188.3908 
  176500    304.90678   -1370.6202   -1197.0262   -1370.6202     333.8808    10771.421            0            0   -12475.922   -8.4247408    2146.4797    13.198013     15.99854    15.015796    3170.5693 
  177000    284.13745    -1352.862   -1191.0927    -1352.862    307.55252    10815.368            0            0   -12475.783   -8.3964115     507.3185      13.4971    16.491804     14.29195    3181.2667 
  177500    309.78378   -1370.7082   -1194.3375   -1370.7082    311.28236    10794.771            0            0   -12476.762   -8.3054583   -24.596268    13.466711    15.956749    14.966638    3216.1049 
  178000    302.87324   -1385.5526   -1213.1163   -1385.5526    299.25913    10791.471            0            0   -12476.282   -8.3905917   -783.51917    13.159758     16.41153    14.740229    3183.4733 
  178500    265.94697   -1381.4464   -1230.0336   -1381.4464    326.44356    10768.206            0            0   -12476.096   -8.3908377    861.45537    13.135215    16.269086    14.896633      3183.38 
  179000    318.09118   -1390.3559   -1209.2555   -1390.3559    317.49418    10768.162            0            0   -12476.012   -8.4062981    339.45657    13.254237    16.277173     14.72839    3177.5253 
  179500     312.0666   -1348.6119   -1170.9415   -1348.6119    317.37127    10810.593            0            0   -12476.576   -8.4174074    1233.2681     13.45873    16.089062    14.654825    3173.3316 
  180000    312.59766    -1379.355   -1201.3823    -1379.355    303.67397    10793.046            0            0   -12476.075   -8.3991079   -691.75195    13.398767    16.058189    14.780844    3180.2455 
  180500    301.85288   -1379.5883    -1207.733   -1379.5883    306.68106     10791.04            0            0    -12477.31   -8.4073334    28.947237    13.051576    16.642731    14.626755     3177.134 
  181000    286.39056   -1376.7801    -1213.728   -1376.7801    285.81645    10814.457            0            0   -12477.054   -8.4578039    -1594.221    13.108553    15.966123    15.089748     3158.175 
  181500    304.46069   -1369.0815   -1195.7415   -1369.0815    311.42554    10795.948            0            0   -12476.455   -8.5154351    567.36513    13.296879    16.318748    14.456075    3136.8009 
  182000     294.0389   -1373.1343   -1205.7277   -1373.1343    293.60713    10809.953            0            0   -12476.695   -8.2820541   -1299.9049    13.378016    16.099425    14.974545    3225.1932 
  182500    294.14544   -1372.8663   -1205.3991   -1372.8663    302.79334    10801.512            0            0   -12477.171   -8.4808834   -315.85145    13.236019    16.242868     14.64983    3149.5805 
  183000    304.56266   -1377.2857   -1203.8876   -1377.2857     306.7806    10792.364            0            0    -12476.43   -8.4505369    299.97581    13.120685    16.312882     14.76802    3160.8909 
  183500    319.58242   -1373.0905   -1191.1411   -1373.0905    304.92999    10798.645            0            0   -12476.666   -8.4488966   -137.35639    13.262798    16.040068    14.861151    3161.5045 
  184000    309.05611    -1369.464   -1193.5077    -1369.464    307.50148    10799.908            0            0   -12476.874   -8.4650375    368.26101     13.32702    16.318672     14.50932    3155.4763 
  184500    298.51692   -1382.1109   -1212.1548   -1382.1109     348.9752    10745.316            0            0   -12476.402   -8.5264568    2732.9612    13.190997    15.712542    15.114756    3132.7462 
  185000    267.57402   -1376.3488   -1224.0096   -1376.3488    307.27541    10791.455            0            0   -12475.079   -8.5047762    299.05925    13.032073    16.712657    14.420221    3140.7322 
  185500    312.95005   -1396.0596   -1217.8862   -1396.0596     300.5289    10780.705            0            0   -12477.294   -8.5233307   -1103.4303     13.31552    15.846648    14.852136    3133.8952 
  186000     314.2326   -1361.6349   -1182.7314   -1361.6349    298.52975    10816.497            0            0   -12476.662    -8.457797   -19.439948    13.261805    16.201537    14.698658    3158.1776 
  186500     314.6901   -1388.8389   -1209.6749   -1388.8389    281.87401    10806.074            0            0   -12476.787    -8.299915   -2420.7802    13.299344    16.282837    14.861405    3218.2528 
  187000    312.45311   -1390.7641   -1212.8737   -1390.7641    282.59243    10803.214            0            0   -12476.571   -8.3042261   -2320.6267    13.299708    16.063753    15.055859    3216.5821 
  187500    287.82863   -1369.8404   -1205.9696   -1369.8404     313.5155    10792.828            0            0   -12476.184   -8.4871553     983.9584    13.124427    16.494713    14.538062     3147.253 
  188000    302.37003   -1399.0127   -1226.8629   -1399.0127    333.03386    10744.482            0            0   -12476.528   -8.4555093     936.1251    13.406725    15.758478    14.952612     3159.032 
  188500    309.23067   -1384.6646   -1208.6088   -1384.6646    304.94722    10786.837            0            0   -12476.449   -8.3537939   -488.44713    13.290835    16.795937    14.323644    3197.4963 
  189000    315.23987   -1366.9536   -1187.4766   -1366.9536     293.1868    10816.994            0            0   -12477.135   -8.3910077   -983.64507    13.188325     15.85288    15.225861    3183.3155 
  189500    293.94005   -1380.8429   -1213.4927   -1380.8429    309.15315    10786.971            0            0   -12476.967    -8.466612    90.433173    13.217542     16.34961    14.599099    3154.8894 
  190000    270.35564   -1366.7457   -1212.8229   -1366.7457    284.70598    10826.112            0            0   -12477.564   -8.3281134   -1725.5975    13.489306    15.969775    14.888768     3207.356 
  190500    306.65825   -1388.2614   -1213.6702   -1388.2614    301.71626    10786.612            0            0    -12476.59   -8.3533893    -807.2616     13.40527    16.275797    14.655925    3197.6511 
  191000    304.09287   -1375.2227   -1202.0921   -1375.2227    306.50233    10794.905            0            0    -12476.63     -8.37406   -288.99709    13.174063    16.316957    14.838802     3189.758 
  191500    298.03158   -1369.7694   -1200.0896   -1369.7694    308.01041    10798.098            0            0   -12475.877   -8.3961917   -37.062928    13.208608    16.189361     14.87732      3181.35 
  192000    297.43893   -1377.8714   -1208.5291   -1377.8714    319.15554    10779.427            0            0   -12476.454    -8.510104    885.73158    13.392778    16.255147    14.417745    3138.7659 
  192500    282.75913   -1380.1658   -1219.1812   -1380.1658    290.91191    10805.978            0            0   -12477.055   -8.2789861   -1671.6856    13.423577    15.912349     15.10477    3226.3884 
  193000    308.35175    -1372.957   -1197.4017    -1372.957    310.40556    10793.156            0            0   -12476.518   -8.4949594    780.59554    13.015815    16.556793    14.590996    3144.3617 
  193500    322.71997   -1370.1118   -1186.3761   -1370.1118    298.96422    10806.675            0            0   -12475.751   -8.3091414   -629.35858     13.37427     15.93375    15.085147    3214.6793 
  194000    312.02669   -1379.6815   -1202.0339   -1379.6815    308.03154    10789.005            0            0   -12476.718   -8.4559153    165.58066    13.307476    16.448112    14.431831    3158.8804 
  194500    305.04432   -1381.4085   -1207.7362   -1381.4085    305.18435    10789.869            0            0   -12476.462   -8.3776915   -430.71316    13.398548    15.980981    14.890465    3188.3753 
  195000    301.51989   -1370.7417   -1199.0759   -1370.7417    308.20934    10797.789            0            0    -12476.74   -8.3520932    201.81217    13.166359    16.400341    14.810847    3198.1474 
  195500    298.77122    -1363.218   -1193.1172    -1363.218    336.64805    10775.953            0            0   -12475.819    -8.438874    2283.0211    13.231789    16.187458    14.777878    3165.2594 
  196000    313.15958   -1377.4078   -1199.1151   -1377.4078    288.51462    10811.352            0            0   -12477.275   -8.4273966   -1590.7229    13.443865      15.9832    14.750695    3169.5701 
  196500    306.35766   -1389.4139   -1214.9939   -1389.4139     328.1296    10758.978            0            0   -12476.521   -8.5850311     1338.689    13.188202    16.354908     14.42508    3111.3719 
  197000    278.32336   -1394.2036   -1235.7445   -1394.2036    305.93635    10776.301            0            0   -12476.441   -8.4577956   -616.02371    13.237623    16.013535    14.898392    3158.1781 
  197500    317.23905   -1398.5697   -1217.9545   -1398.5697     321.6034    10757.376            0            0   -12477.549   -8.4240558    450.47539    13.244275    16.339612    14.652193    3170.8271 
  198000    304.76721   -1403.5295   -1230.0149   -1403.5295     333.4935    10739.982            0            0   -12477.005    -8.432146    856.45304    13.232956    15.938905    15.018976    3167.7849 
  198500     330.3802   -1378.5332   -1190.4362   -1378.5332    318.10633    10779.636            0            0   -12476.275   -8.4121454    910.51588    13.276632    16.595922    14.411119    3175.3166 
  199000    339.37104   -1379.9539   -1186.7382   -1379.9539    316.43736    10780.538            0            0   -12476.929    -8.388814    542.08315    13.380776    15.895415    14.970629    3184.1479 
  199500    287.05278   -1371.1303   -1207.7011   -1371.1303    270.19673    10833.763            0            0    -12475.09   -8.2466699   -2593.3203    13.335345    16.515818    14.706552    3239.0317 
  200000     310.3778    -1391.226   -1214.5172    -1391.226    348.08348    10737.746            0            0   -12477.055   -8.6622109    2727.5144    13.070829    15.976041    14.767015    3083.6498 
  200500    282.12786   -1389.0988   -1228.4736   -1389.0988    298.52117    10789.112            0            0   -12476.732   -8.3007387   -1098.0264    13.314828    16.253704    14.869253    3217.9335 
  201000    312.38301   -1391.3474   -1213.4969   -1391.3474    326.87732    10758.454            0            0   -12476.679   -8.5254692    1119.8402    13.212331    16.193184    14.644139    3133.1091 
  201500    316.44514   -1350.5483   -1170.3851   -1350.5483    312.01993    10813.805            0            0   -12476.373   -8.3732194    792.51013    13.444624    16.140097    14.700988    3190.0782 
  202000    316.42521    -1363.047   -1182.8952    -1363.047    297.11415    10815.343            0            0   -12475.504   -8.2973915   -490.98953    13.421453    16.437416    14.592146    3219.2316 
  202500    308.91744   -1397.0903   -1221.2128   -1397.0903    311.36281    10768.483            0            0   -12476.936   -8.4161724   -283.51854    13.008741    16.092558    15.160685    3173.7972 
  203000    291.50596   -1370.0721   -1204.1077   -1370.0721    287.28588    10818.286            0            0   -12475.644   -8.3417536   -1323.7426    13.188221    16.428691    14.779075    3202.1114 
  203500     335.9185    -1393.248   -1201.9979    -1393.248    341.75814    10741.574            0            0    -12476.58   -8.4389497    1743.0874    13.328207    16.072189    14.776061    3165.2309 
  204000    292.76167   -1364.0345   -1197.3551   -1364.0345    288.20594    10823.571            0            0   -12475.811   -8.1920751   -1315.1625    13.564694    16.393819    14.662558    3260.6176 
  204500    297.73096   -1371.6216   -1202.1131   -1371.6216    351.18732    10753.959            0            0   -12476.768   -8.5422229    3361.2723    13.166895    16.064483    14.783347    3126.9641 
  205000     292.0771   -1352.4954   -1186.2058   -1352.4954    293.71039    10828.354            0            0    -12474.56   -8.2798697   -460.71304    13.178462    16.372341    14.951844    3226.0441 
  205500    296.41535   -1393.0881   -1224.3285   -1393.0881    322.12047    10761.304            0            0   -12476.513    -8.413524    441.38554    13.311295    16.170793    14.749057    3174.7963 
  206000    271.13814   -1386.7694   -1232.4011   -1386.7694    325.44574     10764.82            0            0   -12477.035   -8.4545625    639.20606    13.475008    15.942661    14.706618    3159.3858 
  206500    303.39413   -1379.1269   -1206.3941   -1379.1269    284.66808      10812.1            0            0   -12475.895   -8.2407499   -1999.6099    13.320449    16.565259      14.6896    3241.3585 
  207000     292.7249   -1363.3569   -1196.6985   -1363.3569    318.24283    10794.655            0            0   -12476.254   -8.4849446    1206.7775    13.152672    16.043461     14.91876     3148.073 
  207500    302.98603   -1368.0439   -1195.5435   -1368.0439    287.40747    10821.475            0            0   -12476.927   -8.3485241   -1108.6887    13.202664    16.472633    14.711586    3199.5146 
  208000    326.16707   -1382.9293    -1197.231   -1382.9293    327.09337    10765.897            0            0   -12475.919   -8.4300451    819.60835    13.768549    15.511445    14.836227    3168.5744 
  208500    296.67546   -1367.9034   -1198.9958   -1367.9034     309.8454    10798.321            0            0    -12476.07   -8.3736645    15.267664     13.39944    16.358139    14.553174    3189.9086 
  209000    284.99263   -1331.3913   -1169.1351   -1331.3913    316.36507    10827.392            0            0   -12475.148   -8.3737087    1718.7579    13.122437    16.168958    15.034169    3189.8918 
  209500    288.74937   -1385.5902   -1221.1951   -1385.5902    309.84872    10781.782            0            0   -12477.221   -8.4319525   -142.05984    13.214767    16.278307    14.726411    3167.8576 
  210000    302.24609   -1376.9709   -1204.8917   -1376.9709     298.2307    10801.246            0            0   -12476.448   -8.3288459   -1199.3188    13.537158     16.13457    14.683314     3207.074 
  210500    341.95351   -1366.5877   -1171.9017   -1366.5877    291.77606    10817.699            0            0   -12476.063   -8.3441327   -816.47736    13.406575    16.328645    14.623273    3201.1985 
  211000    306.86096   -1383.8859   -1209.1793   -1383.8859    312.39914    10780.533            0            0   -12476.818   -8.3519534    212.67399    13.014773    16.308857    15.067653    3198.2009 
  211500    287.86439   -1369.9378   -1206.0466   -1369.9378    311.95211    10793.475            0            0   -12475.365   -8.4054913     628.1992    13.174665    16.345641    14.756697    3177.8303 
  212000    282.02912    -1385.334    -1224.765    -1385.334     324.8957     10766.49            0            0   -12476.719   -8.3755854    555.68881    13.442956    15.933946    14.888828     3189.177 
  212500    292.64219   -1395.2001   -1228.5888   -1395.2001    323.54905    10758.617            0            0   -12477.366   -8.4415568     405.4043    13.416071    16.322361    14.449837    3164.2534 
  213000    253.55068   -1377.1028   -1232.7476   -1377.1028    327.66258    10771.408            0            0   -12476.173   -8.4046394    892.44977    13.285408    15.998083    14.953122    3178.1524 
  213500     315.7496   -1364.1308   -1184.3636   -1364.1308    287.36236    10824.799            0            0   -12476.292   -8.2938797   -916.65171    13.087323    16.579969    14.842311    3220.5947 
  214000    305.22181   -1379.8423   -1206.0689   -1379.8423     336.5081    10760.732            0            0   -12477.083     -8.52441    2038.9102    13.269045    15.979019    14.778817    3133.4984 
  214500    269.52261   -1364.4597   -1211.0111   -1364.4597      275.265    10836.783            0            0   -12476.508   -8.3212444   -2447.3691    13.526322    16.192045    14.656291    3210.0036 
  215000    281.98066   -1380.2644    -1219.723   -1380.2644     309.2586    10786.902            0            0   -12476.425   -8.3332274   -277.16201    13.373569    16.257695    14.742606    3205.3877 
  215500     316.7639   -1369.5668   -1189.2221   -1369.5668    343.55371    10762.124            0            0   -12475.245   -8.6065555    3194.7744    12.945505    16.078627    14.910646    3103.5906 
  216000     278.5964   -1378.0415   -1219.4269   -1378.0415    292.59895    10805.625            0            0   -12476.266   -8.3470129   -1239.3181     13.25272    16.289796    14.823203    3200.0939 
  216500    303.37718   -1404.3177   -1231.5945   -1404.3177    348.47361    10723.147            0            0   -12475.938    -8.511747    2011.1389    13.351605    15.957408    14.729203    3138.1601 
  217000     294.3162   -1365.3011   -1197.7367   -1365.3011    288.91142     10822.61            0            0   -12476.823   -8.3433643   -989.61775    13.356976    16.458071    14.563492    3201.4933 
  217500    282.61932   -1370.0121   -1209.1071   -1370.0121    330.57025    10776.084            0            0   -12476.667   -8.5010412    1539.7801    13.077652    15.913501    15.098235    3142.1121 
  218000     266.5774   -1385.4409   -1233.6691   -1385.4409    317.55471    10773.998            0            0   -12476.993   -8.4484284    420.70812    13.062336    16.512102    14.658673    3161.6797 
  218500    306.04329   -1371.3751    -1197.134   -1371.3751    290.42853    10813.259            0            0   -12475.063   -8.3056373   -1417.4879    13.419166    16.079257    14.904909    3216.0355 
  219000    287.48299   -1351.4549   -1187.7808   -1351.4549    291.07953    10833.653            0            0   -12476.188   -8.4144574   -573.13393    13.592525    16.058958    14.542873    3174.4441 
  219500    284.09636   -1365.7813   -1204.0354   -1365.7813    301.70872    10808.809            0            0   -12476.299   -8.3323651   -262.26819    13.128807    16.303132    14.977151    3205.7195 
  220000    314.20183   -1367.1469   -1188.2609   -1367.1469    306.42532    10803.116            0            0   -12476.688   -8.4181227    153.72811    13.122799    16.240298    14.888745    3173.0619 
  220500    275.74832   -1397.0524   -1240.0593   -1397.0524    319.53883    10759.726            0            0   -12476.318   -8.4415103    160.07735    13.270353     16.23213    14.689793    3164.2708 
  221000    283.94301   -1375.2731   -1213.6145   -1375.2731    327.16682    10773.918            0            0   -12476.358   -8.5039617    1185.5486    13.606977    15.795697      14.6141     3141.033 
  221500    289.30056   -1374.9731   -1210.2642   -1374.9731    324.80206    10776.535            0            0   -12476.311   -8.4547277     1430.526    13.172174    16.326272    14.690944    3159.3241 
  222000    315.26575   -1376.7414   -1197.2497   -1376.7414     306.8405    10792.962            0            0   -12476.544   -8.4188667   -32.564705    13.093213    16.137516    15.016103    3172.7815 
  222500    314.03112   -1369.2761   -1190.4872   -1369.2761     337.0013    10769.783            0            0    -12476.06   -8.4326675    2187.0566    13.120819    16.456429    14.670074     3167.589 
  223000    336.81536   -1383.1413   -1191.3806   -1383.1413    308.06182    10784.925            0            0   -12476.129   -8.3889552   -221.93113     13.67672    15.771602    14.761421    3184.0943 
  223500    325.88713   -1355.9232   -1170.3843   -1355.9232    299.03217    10820.364            0            0   -12475.319   -8.3791613   -137.46969    13.313064    16.352605     14.64294     3187.816 
  224000    315.40709   -1387.2872    -1207.715   -1387.2872     317.7407    10771.503            0            0   -12476.531   -8.5044577    616.21218    13.055908    16.150387    14.895571    3140.8498 
  224500    286.09758   -1368.9411   -1206.0558   -1368.9411    295.54333    10812.519            0            0   -12477.003   -8.3313106    -663.2653    13.114761    16.372968    14.931129    3206.1252 
  225000     292.2233   -1372.1398    -1205.767   -1372.1398    309.08485    10795.422            0            0   -12476.647   -8.4225614   -75.681263    13.451896    16.077176    14.664131    3171.3897 
  225500    315.74771   -1365.5524   -1185.7862   -1365.5524    321.33399    10788.731            0            0   -12475.617   -8.4332292    1175.4708    13.343621    16.174919    14.675202     3167.378 
  226000     305.4967    -1374.919   -1200.9891    -1374.919    315.03789    10786.882            0            0   -12476.839   -8.3279663    392.95904    13.248894    16.349256    14.807346    3207.4127 
  226500    324.49572   -1370.1229   -1185.3762   -1370.1229    322.15894    10784.209            0            0    -12476.49   -8.4667018    1338.4981    13.169195     15.97936    14.992047     3154.856 
  227000    322.14514   -1404.9525    -1221.544   -1404.9525    304.92661     10767.38            0            0   -12477.259   -8.3968288   -884.03482    13.414395    16.452311    14.413867    3181.1087 
  227500    301.71668   -1389.5485   -1217.7707   -1389.5485    342.94202    10743.833            0            0   -12476.324    -8.451866    1785.6387    13.499351    15.739717    14.874124    3160.3938 
  228000    273.37037   -1372.2168   -1216.5776   -1372.2168     298.1126    10806.924            0            0   -12477.253    -8.405163   -629.66419    13.157001       16.376    14.749691    3177.9544 
  228500    285.41351   -1384.2117   -1221.7158   -1384.2117     318.9394    10773.027            0            0   -12476.178   -8.3960509    561.29902    13.166593    16.281468     14.84061    3181.4034 
  229000    294.25188   -1388.5815   -1221.0537   -1388.5815     289.1395    10799.666            0            0   -12477.387   -8.3838206   -1917.2248    13.309262    16.022304    14.940766    3186.0444 
  229500    294.82519   -1360.8388   -1192.9846   -1360.8388    284.29903    10831.393            0            0    -12476.53   -8.4332842   -1064.2796    13.324177    16.465727     14.43696    3167.3574 
  230000    283.60249   -1381.2678   -1219.8031   -1381.2678    268.82383    10826.891            0            0   -12476.983   -8.3266996   -3153.1376    13.344225    15.831583    15.184595    3207.9006 
  230500    281.06898   -1356.4823     -1196.46   -1356.4823     272.2135    10847.458            0            0   -12476.154   -8.3798119   -1741.5311    13.166385    16.743647    14.459155    3187.5685 
  231000    295.42802   -1388.7537   -1220.5563   -1388.7537    303.63555    10784.381            0            0    -12476.77   -8.3585807   -925.08322    13.384011    15.892257    15.024133    3195.6651 
  231500    291.76808   -1372.9756   -1206.8619   -1372.9756    311.26763    10792.639            0            0   -12476.883   -8.4673989   -11.328783    13.304617    16.248968    14.592027    3154.5963 
  232000    284.76873    -1372.353   -1210.2242    -1372.353    294.37275    10809.105            0            0   -12475.831   -8.3326289   -953.82083    13.339706     16.17233    14.859113    3205.6179 
  232500    296.61673   -1363.8222    -1194.948   -1363.8222    328.15772    10784.534            0            0   -12476.514    -8.503788    2244.1837    13.072639    16.435552    14.619543    3141.0972 
  233000    305.36094   -1369.7681   -1195.9155   -1369.7681    291.59777    10815.055            0            0   -12476.421    -8.325446   -1123.4529    13.324492    16.187338     14.87511    3208.3836 
  233500    283.94768   -1399.8829   -1238.2216   -1399.8829    342.11773    10734.378            0            0   -12476.378   -8.4796608     1427.209     13.44335    16.082468    14.569851    3150.0346 
  234000    282.20655   -1384.6386   -1223.9686   -1384.6386     311.8971    10780.356            0            0   -12476.892   -8.4276013    71.055261     13.32011    16.279531     14.61639    3169.4932 
  234500    276.35326   -1393.8393   -1236.5018   -1393.8393    311.87669    10771.223            0            0   -12476.939   -8.4288061   -394.94228     13.18342    16.125161    14.907184    3169.0401 
  235000    297.65479   -1375.0591   -1205.5939   -1375.0591    326.42948    10774.916            0            0   -12476.405   -8.4137352     1249.645    13.237537    16.330278    14.686023    3174.7166 
  235500    295.85633   -1376.7492   -1208.3079   -1376.7492    297.28847    10802.652            0            0    -12476.69   -8.3551679   -1091.8294    13.521086    15.926062    14.846314    3196.9704 
  236000    301.95237   -1372.1638   -1200.2519   -1372.1638    294.29301    10810.497            0            0   -12476.954   -8.3400942   -846.93859    13.466615    16.526264    14.390959    3202.7486 
  236500    275.59456   -1393.2278   -1236.3223   -1393.2278    314.38876    10769.506            0            0   -12477.123   -8.5039289   -318.08872    13.207045    15.843577    15.011195    3141.0452 
  237000    306.96107    -1382.732   -1207.9684    -1382.732    296.30952    10796.892            0            0   -12475.934   -8.4332362   -530.89557    13.073005    16.505734    14.678756    3167.3754 
  237500    329.83632   -1364.3787   -1176.5914   -1364.3787    289.23263    10823.483            0            0   -12477.095   -8.3495548   -1014.9294    13.328146    15.918067    15.078926    3199.1197 
  238000    281.80142   -1381.6878   -1221.2485   -1381.6878    308.22944    10787.298            0            0   -12477.215   -8.4860644   -51.608497    13.384172    16.348075    14.385646    3147.6575 
  238500    304.15948   -1365.5007   -1192.3322   -1365.5007    308.35898    10802.344            0            0   -12476.204   -8.4219119    311.15076    13.304478    16.166717    14.745633    3171.6343 
  239000    287.00209   -1373.7754   -1210.3751   -1373.7754    316.16453     10786.66            0            0     -12476.6   -8.3551555    428.03023    13.328087     16.17959    14.825315    3196.9752 
  239500    313.43363   -1379.9814   -1201.5327   -1379.9814    325.22592    10771.225            0            0   -12476.432   -8.5302648    1452.7377    13.147102    16.329791    14.585476    3131.3477 
  240000     307.7142   -1364.9952   -1189.8028   -1364.9952    295.28329    10816.506            0            0   -12476.784   -8.4025116   -553.79028    13.294711    15.897184    15.041307    3178.9572 
  240500     321.5657   -1362.4211   -1179.3426   -1362.4211    315.21337    10799.109            0            0   -12476.744   -8.3409211    882.29757    13.346348    16.489832    14.551278    3202.4311 
  241000    322.18006      -1375.4   -1191.9717      -1375.4    302.97457    10797.857            0            0   -12476.231   -8.4236826   -477.84758    13.333716     15.71649    15.131608    3170.9676 
  241500    292.04014    -1367.562   -1201.2934    -1367.562    289.48367    10818.457            0            0   -12475.503   -8.3963556   -811.38575    13.093858     16.85999    14.410467    3181.2879 
  242000    279.87997   -1372.8899   -1213.5445   -1372.8899    328.52467    10775.106            0            0   -12476.521   -8.4524185    1482.2246    13.267695     15.91091    14.970017    3160.1872 
  242500    304.20335   -1380.2555    -1207.062   -1380.2555    301.44606    10795.587            0            0   -12477.288   -8.4052971   -524.65678    13.321051     16.32463    14.613657    3177.9037 
  243000    304.45519   -1393.7405   -1220.4036   -1393.7405    335.08001    10748.596            0            0   -12477.417   -8.5359498    1673.5793    13.159483    16.099108    14.770708    3129.2621 
  243500    316.17849    -1360.399   -1180.3876    -1360.399    298.91459    10816.801            0            0   -12476.115   -8.3843165   -99.187062    13.339898    16.053922    14.876216     3185.856 
  244000    319.85547   -1371.6966   -1189.5918   -1371.6966    323.11981      10781.1            0            0   -12475.916   -8.4848622    1587.4569    13.286199    16.157311    14.664902    3148.1035 
  244500    312.14973   -1362.4345   -1184.7168   -1362.4345    317.38121    10796.047            0            0   -12475.862   -8.2854061    671.53393    13.392611    16.213258    14.847196    3223.8884 
  245000    311.95817   -1380.4822   -1202.8736   -1380.4822    315.71479    10780.119            0            0   -12476.316   -8.3744459    462.49747     13.26656    16.426532    14.636374     3189.611 
  245500    290.74595   -1378.7057   -1213.1739   -1378.7057    327.03517    10770.615            0            0   -12476.356   -8.4745118    882.52397    13.338558    15.801485    14.954515    3151.9485 
  246000     302.0121   -1405.5499   -1233.6039   -1405.5499     308.8446    10762.476            0            0   -12476.871   -8.4097391   -580.51433    13.218822    16.618594    14.458534    3176.2251 
  246500    296.78403    -1376.232   -1207.2625    -1376.232    347.37681    10753.094            0            0   -12476.703   -8.5802149     2888.219    13.171087     15.74955    15.007414    3113.1184 
  247000    322.87941   -1372.6811   -1188.8547   -1372.6811    326.38117    10777.527            0            0   -12476.589   -8.4186734     1671.452    13.252152    16.422053    14.579287    3172.8544 
  247500     311.8574    -1401.378   -1223.8267    -1401.378    339.38266     10736.08            0            0   -12476.841   -8.4935979    1578.1062    13.332079    15.945347    14.793477    3144.8657 
  248000    297.91215   -1368.1312   -1198.5195   -1368.1312    336.02801    10771.919            0            0   -12476.078   -8.5049191    2299.6956    13.199797     16.36566    14.538609    3140.6795 
  248500      301.353   -1387.5877    -1216.017   -1387.5877    293.58938    10796.122            0            0   -12477.299   -8.4535215   -1332.6718    13.142207    15.873965    15.146156    3159.7749 
  249000    316.83621   -1393.8734   -1213.4876   -1393.8734    321.76678    10761.327            0            0   -12476.968   -8.4806603    644.57328    13.220917    16.289026     14.62539    3149.6633 
  249500    289.36684   -1360.9528   -1196.2062   -1360.9528     305.3913    10809.611            0            0   -12475.955   -8.3414011    65.959731    13.432998    16.230408    14.687653    3202.2468 
  250000     286.8602   -1378.9213   -1215.6019   -1378.9213    310.92709    10786.249            0            0   -12476.097   -8.3128331   -329.25319    13.375467    15.934865    15.076043    3213.2516 
  250500     302.9657   -1388.0209   -1215.5321   -1388.0209    305.41823    10782.545            0            0   -12475.984   -8.3926571   -537.45844    13.236502    16.374895    14.683939    3182.6899 
  251000     291.5579   -1364.1971    -1198.203   -1364.1971     302.2716    10809.927            0            0   -12476.396   -8.4316191   -156.66823    13.307542    16.082558    14.802322    3167.9829 
  251500    311.94543   -1393.7559   -1216.1545   -1393.7559    316.20111    10767.218            0            0   -12477.175   -8.4067461    333.79727    13.293513    16.473191    14.509363    3177.3559 
  252000    306.98109   -1398.3915   -1223.6166   -1398.3915    308.21487    10769.893            0            0   -12476.499   -8.4048465   -926.92718    13.286999    15.918162    15.026028    3178.0741 
  252500    313.16282   -1376.9833   -1198.6888   -1376.9833    310.56245    10788.856            0            0   -12476.402   -8.4213473    328.34242    13.147447    16.526574    14.597819     3171.847 
  253000    313.88452   -1397.6278   -1218.9225   -1397.6278    304.98129    10774.398            0            0   -12477.007   -8.2900878   -951.03872    13.363134    16.180276    14.901858    3222.0678 
  253500    287.82731   -1375.1579   -1211.2878   -1375.1579    307.39486    10793.899            0            0   -12476.452   -8.4338988   -324.09486    13.349949    16.167781    14.673556    3167.1266 
  254000    332.09693   -1376.4057   -1187.3314   -1376.4057    319.69628    10780.533            0            0   -12476.635   -8.3271769     817.3872    13.304899    16.346356    14.749031    3207.7167 
  254500    295.30274   -1379.6983   -1211.5721   -1379.6983    307.44427    10789.443            0            0   -12476.586   -8.4385103    -226.6846    13.106023    15.948309    15.144065    3165.3958 
  255000    277.70196   -1368.8967   -1210.7914   -1368.8967    301.97001    10805.717            0            0   -12476.583   -8.4627439   -17.484764    13.206209    16.520768    14.466857    3156.3315 
  255500    281.34926   -1396.9103   -1236.7284   -1396.9103    313.40673    10767.064            0            0   -12477.381   -8.4153007   -257.99171     13.36835    15.970422    14.867226     3174.126 
  256000    285.82723   -1395.4969   -1232.7655   -1395.4969      316.983     10764.47            0            0    -12476.95   -8.3388119   -342.52041    13.446678    16.313389    14.602608    3203.2411 
  256500    312.65616   -1371.3215   -1193.3155   -1371.3215    279.56984    10824.395            0            0   -12475.287   -8.3399359   -1807.7852    13.070314    16.203145    15.123272    3202.8094 
  257000    292.84719   -1369.0477   -1202.3196   -1369.0477    325.41237    10779.864            0            0   -12474.324   -8.3821961    1344.9132    13.099017    16.488694    14.754041    3186.6619 
  257500    289.80759   -1388.5607   -1223.5632   -1388.5607    324.92094    10762.666            0            0   -12476.148   -8.4215061    579.17308     13.36394    16.001883    14.831956    3171.7872 
  258000    298.94069   -1374.5473     -1204.35   -1374.5473    326.45062    10775.605            0            0   -12476.603   -8.4655966     1117.038    13.362325    16.169476    14.603544    3155.2678 
  258500    303.59862   -1397.2139   -1224.3646   -1397.2139    296.01708    10783.321            0            0   -12476.552   -8.3176277   -1728.7924    13.295752    16.217417    14.893602    3211.3994 
  259000    302.58935   -1370.4278   -1198.1531   -1370.4278    291.56598    10814.956            0            0    -12476.95   -8.3777652   -658.30746     13.10924    16.338685     14.88576    3188.3473 
  259500    328.36806   -1370.2693    -1183.318   -1370.2693    272.97438    10833.324            0            0   -12476.567   -8.2447204   -2351.0211    13.459324    16.232717    14.828712    3239.7975 
  260000    294.70359   -1359.4014   -1191.6164   -1359.4014    318.10408    10798.283            0            0   -12475.789   -8.3120713    660.18373    13.516486    16.061806    14.802203    3213.5462 
  260500    281.74767   -1360.3798    -1199.971   -1360.3798    327.31505    10787.538            0            0   -12475.233   -8.4466714    1863.3669    13.272243    16.379656    14.546519    3162.3374 
  261000     329.9333   -1368.6231   -1180.7806   -1368.6231    330.56335    10777.386            0            0   -12476.572   -8.3956374    1712.6983    13.166779    15.911068    15.186625    3181.5601 
  261500    299.82805   -1368.0572   -1197.3547   -1368.0572    293.91256    10814.152            0            0   -12476.122   -8.3897472   -326.40112    13.087283    16.866356    14.423617    3183.7937 
  262000    291.31479   -1401.9504   -1236.0947   -1401.9504    325.83972    10748.485            0            0   -12476.275   -8.4231391    100.96463    13.401664    15.982455    14.805314    3171.1722 
  262500    326.40021   -1379.1578   -1193.3268   -1379.1578    315.28159    10782.056            0            0   -12476.495   -8.3367717    192.70068    13.419726    16.314072    14.634904     3204.025 
  263000    340.10407   -1372.9534   -1179.3203   -1372.9534    288.60373    10814.753            0            0    -12476.31   -8.3468091   -1277.2824    13.179243    16.159737    15.026179     3200.172 
  263500    312.90518   -1380.7356   -1202.5879   -1380.7356    309.70579    10785.314            0            0   -12475.755   -8.5280371    198.42125    13.050553    16.204703    14.810671    3132.1657 
  264000    273.18449    -1385.929   -1230.3956    -1385.929    293.05546    10797.937            0            0   -12476.922   -8.3266321   -1655.0302    13.426976    16.234222    14.716846    3207.9266 
  264500    304.18823   -1367.1799    -1193.995   -1367.1799     313.6982    10796.052            0            0    -12476.93   -8.3585537    486.81163    13.540064    15.980279    14.769222    3195.6754 
  265000    254.63859   -1374.5741   -1229.5995   -1374.5741    324.16595    10777.861            0            0   -12476.601   -8.4809358    1175.0884    13.229688     16.38147    14.532742     3149.561 
  265500    279.29792   -1377.8222   -1218.8082   -1377.8222    295.18208    10803.701            0            0   -12476.705   -8.3154515   -1188.8558    13.157951     16.15592    15.110819    3212.2399 
  266000    279.46001   -1364.1024   -1204.9961   -1364.1024    280.12213    10831.701            0            0   -12475.926   -8.2799634   -1956.8686    13.361566    16.350076    14.766864    3226.0076 
  266500    298.85105   -1394.0128   -1223.8665   -1394.0128    298.10604    10785.447            0            0   -12477.565   -8.4296087   -1288.6023    13.392003    16.051575    14.740873    3168.7384 
  267000    300.54465   -1387.5785    -1216.468   -1387.5785    280.26225     10808.86            0            0     -12476.7   -8.2500538   -2550.6905    13.402815    16.337388    14.786261    3237.7031 
  267500    291.20553   -1388.5637   -1222.7702   -1388.5637    325.03216    10763.209            0            0   -12476.804   -8.5634997    1083.4485    13.082678    16.143948    14.768491    3119.1949 
  268000    308.74103   -1376.0543   -1200.2773   -1376.0543    271.83015    10829.311            0            0   -12477.196   -8.3105511   -2487.2484    13.281403    16.312261    14.835626     3214.134 
  268500    332.08337   -1385.3457   -1196.2791   -1385.3457    309.99052    10782.365            0            0   -12477.701   -8.4728245    -76.22891     13.58299     15.92912    14.570634    3152.5762 
  269000     302.9234   -1381.8323   -1209.3675   -1381.8323    314.89421    10779.552            0            0   -12476.278   -8.4590786     498.8175    13.364657    16.164617    14.616639    3157.6991 
  269500    278.04367    -1381.766   -1223.4661    -1381.766    299.61446    10795.445            0            0   -12476.826   -8.4868472   -537.12243    13.078019    16.205222    14.850821    3147.3672 
  270000    254.75331   -1378.3941   -1233.3542   -1378.3941    299.82104      10798.4            0            0   -12476.615   -8.3956053   -903.49391    13.200633    16.274572      14.8094    3181.5722 
  270500    302.71432   -1382.3294   -1209.9836   -1382.3294    282.94023    10810.873            0            0   -12476.142   -8.2952791   -2100.5681      13.3806    16.239238    14.819091    3220.0514 
  271000    301.76439   -1347.3852   -1175.5803   -1347.3852    312.03412    10815.963            0            0   -12475.382   -8.3975296      1044.44    13.343103    16.247843    14.672013    3180.8432 
  271500    305.67667   -1377.4607   -1203.4284   -1377.4607    315.12461    10784.274            0            0   -12476.859   -8.3696657    79.916781    13.348304    16.019288     14.92507    3191.4327 
  272000    306.48472   -1357.3096   -1182.8172   -1357.3096    288.03421    10830.229            0            0   -12475.573    -8.361388   -670.42502    12.999628    16.759735    14.662814    3194.5922 
  272500    290.11742   -1389.1357   -1223.9618   -1389.1357     319.4454    10767.237            0            0   -12475.818   -8.3721972    74.483631    13.363834    15.930576    14.986209    3190.4677 
  273000    277.38953   -1367.4005    -1209.473   -1367.4005    317.85791    10790.675            0            0   -12475.933   -8.4350097    690.05872     13.41977    16.355052    14.428169    3166.7094 
  273500    307.80113   -1378.5563   -1203.3144   -1378.5563    307.28696    10791.058            0            0   -12476.901   -8.4659915   -225.20219    13.391344    15.724078    14.983959    3155.1207 
  274000    311.33386   -1371.4334   -1194.1803   -1371.4334    310.14217    10795.185            0            0   -12476.761   -8.4424245     453.3665    12.968667    16.750374    14.564875    3163.9282 
  274500    310.44698   -1390.4817   -1213.7334   -1390.4817    309.70885    10776.838            0            0   -12477.029   -8.4020177   -265.25502     13.17958    16.116803    14.966827    3179.1441 
  275000    308.77788   -1394.7767   -1218.9788   -1394.7767    327.02663    10755.373            0            0   -12477.176   -8.4508928     786.9639    13.422686    16.094096    14.631376    3160.7577 
  275500    339.05046   -1381.5542    -1188.521   -1381.5542     325.2101    10769.613            0            0   -12476.378   -8.4064897    880.35924    13.538533    16.137754    14.543348    3177.4529 
  276000    277.88169   -1386.2577     -1228.05   -1386.2577     313.8034    10776.526            0            0   -12476.587   -8.4155021    374.88714    13.044037     16.18822    15.031511      3174.05 
  276500     323.1865   -1388.9976   -1204.9963   -1388.9976    307.33907    10780.295            0            0   -12476.632   -8.4157645   -211.54311    13.143808     16.33373    14.784058    3173.9511 
  277000    268.24015   -1371.8182   -1219.0998   -1371.8182    278.73058    10825.106            0            0   -12475.654   -8.1970154   -2646.0101    13.513076    16.116374    14.962924    3258.6525 
  277500    316.89571   -1385.2859   -1204.8662   -1385.2859    353.51424    10737.339            0            0   -12476.139   -8.6084114    3209.4231    13.250362    16.111199    14.535005    3102.9215 
  278000    307.08969   -1377.2989   -1202.4621   -1377.2989    291.70861    10806.626            0            0   -12475.634   -8.3987208   -1092.5461    13.208909    16.166368    14.893654     3180.392 
  278500     277.9187   -1351.7093   -1193.4806   -1351.7093    307.96262    10816.958            0            0    -12476.63   -8.4323854    916.54299    13.118544    16.734572    14.429229     3167.695 
  279000    311.56349   -1368.6512   -1191.2673   -1368.6512    278.48277    10829.477            0            0   -12476.611   -8.2045794   -2421.8541     13.59766    15.861724    15.094645    3255.6483 
  279500    319.88579   -1386.2008   -1204.0787   -1386.2008    324.48466    10765.272            0            0   -12475.957   -8.4344693    1175.8622    13.268422    16.381128     14.57045    3166.9123 
  280000    294.90368   -1390.9898   -1223.0909   -1390.9898    316.19369    10769.055            0            0   -12476.239   -8.3382911   -162.69669    13.392306    16.081338    14.874391    3203.4411 
  280500    317.01749   -1377.0208   -1196.5317   -1377.0208    330.73596    10769.196            0            0   -12476.952   -8.4379444    1421.9671     13.23546    16.071947      14.8816     3165.608 
  281000    349.18592   -1377.6202   -1178.8165   -1377.6202    301.66492    10797.812            0            0   -12477.098   -8.3858152    -322.3891    13.279952    16.364754    14.656914    3185.2866 
  281500    285.55726   -1367.9719   -1205.3943   -1367.9719    284.06181    10824.426            0            0    -12476.46   -8.3063372   -1746.0712    13.364001    16.132157    14.916101    3215.7645 
  282000    311.81074   -1380.0715   -1202.5468   -1380.0715     296.2797    10799.895            0            0   -12476.246   -8.3727054    -601.0838    13.289824    16.584339    14.474734    3190.2741 
  282500    303.32835   -1372.4846   -1199.7892   -1372.4846    339.90201    10764.369            0            0   -12476.755   -8.4719145    2302.3802    13.174154    15.716194    15.227974    3152.9148 
  283000    283.87655   -1386.9411   -1225.3203   -1386.9411    308.94982    10780.131            0            0   -12476.022   -8.3810056   -53.315743    13.182626    16.628413    14.539348    3187.1145 
  283500    295.51358   -1365.7141    -1197.468   -1365.7141    299.53383    10811.582            0            0    -12476.83   -8.2793865   -546.60653    13.318562    16.065323    15.078177    3226.2324 
  284000    284.24518   -1367.9998   -1206.1691   -1367.9998    332.54022    10775.812            0            0   -12476.352   -8.5545898    2239.7094    13.203157      16.3374     14.47551    3122.4437 
  284500    297.41416   -1384.1264   -1214.7982   -1384.1264    298.08486    10792.941            0            0   -12475.152   -8.3213375   -1104.2133    13.329353    16.161177     14.90111    3209.9677 
  285000    315.94059   -1371.8607   -1191.9847   -1371.8607    303.16656    10800.746            0            0   -12475.773    -8.322727   -505.02271    13.300894    16.273166     14.82775    3209.4318 
  285500    294.14724   -1372.1611   -1204.6929   -1372.1611    304.85516     10799.85            0            0   -12476.866   -8.4391875   -179.10649    13.201499    16.323041    14.688209    3165.1417 
  286000    289.21018   -1385.1592   -1220.5018   -1385.1592    308.92139    10783.297            0            0   -12477.377   -8.4319659   -326.46271    13.389564    15.933895    14.848294    3167.8526 
  286500    315.43659    -1359.159     -1179.57    -1359.159    280.30625    10836.692            0            0   -12476.158   -8.3310106   -1283.1742    13.278703    16.509218    14.625609    3206.2407 
  287000    299.34165   -1408.5768   -1238.1512   -1408.5768    339.66968    10729.044            0            0   -12477.291   -8.5709827    1370.6889     13.23285    15.821322    14.885624    3116.4717 
  287500    307.42218   -1382.0708   -1207.0447   -1382.0708    289.06331    10805.818            0            0   -12476.952   -8.3377008   -1311.4298    13.249089     16.50182    14.653104    3203.6679 
  288000     288.5017   -1381.5306   -1217.2765   -1381.5306    299.91413    10794.951            0            0   -12476.395   -8.3994059   -937.28569    13.419972    15.917023    14.887843    3180.1326 
  288500    298.66681   -1385.4695   -1215.4281   -1385.4695    352.63532    10738.328            0            0   -12476.433   -8.5998348    3291.6382    13.182887    16.396608    14.369417     3106.016 
  289000    307.67661   -1387.2485   -1212.0775   -1387.2485    288.57902    10800.724            0            0   -12476.552   -8.3021283   -1716.1967    13.209429    16.192149    15.042354    3217.3948 
  289500    306.86068   -1384.8501   -1210.1436   -1384.8501    305.58381    10786.353            0            0   -12476.786   -8.4432464    -203.5519    13.214437    16.179681    14.796729    3163.6202 
  290000    311.10182   -1379.5968   -1202.4757   -1379.5968    277.47457    10820.303            0            0   -12477.375   -8.3365042   -2168.1906    13.402579    16.404859    14.572999    3204.1278 
  290500    284.90432    -1371.937    -1209.731    -1371.937    300.04687    10804.502            0            0   -12476.486    -8.385515   -821.02437    13.434028    15.719958    15.083649    3185.4006 
  291000    310.80964   -1374.1082   -1197.1534   -1374.1082    303.89392    10797.462            0            0   -12475.464   -8.5194144    147.50459    13.052749    16.676955     14.40341    3135.3358 
  291500    314.78512   -1397.7413   -1218.5232   -1397.7413    321.22948    10758.825            0            0   -12477.796   -8.3913605    238.06192    13.257537    15.968822     15.03577    3183.1816 
  292000    300.45833   -1368.4357   -1197.3743   -1368.4357    350.90008    10757.291            0            0   -12476.627   -8.5364394    3586.0004    13.295672    16.288257    14.448812    3129.0827 
  292500    294.85884   -1392.0886   -1224.2152   -1392.0886    304.27213    10779.789            0            0    -12476.15   -8.4147176   -800.77012    13.375711    15.873038    14.951244     3174.346 
  293000    355.33191   -1379.2592   -1176.9564   -1379.2592    301.56712     10795.83            0            0   -12476.656   -8.4233066    94.529625    12.922544    16.713739    14.682147    3171.1092 
  293500    298.44651   -1365.4942   -1195.5782   -1365.4942    299.03587    10811.465            0            0   -12475.995   -8.3067173   -752.36753    13.384512    16.079076    14.941725    3215.6174 
  294000    322.76246   -1385.6247   -1201.8648   -1385.6247    354.60837    10735.414            0            0   -12475.647    -8.519484     3090.962    13.379252    16.132013     14.52647    3135.3102 
  294500    321.32924   -1366.2886   -1183.3447   -1366.2886    300.08075    10809.751            0            0    -12476.12   -8.2862259   -151.96234    13.290306     16.28108    14.897687    3223.5694 
  295000    268.73517   -1392.6408   -1239.6405   -1392.6408    335.88446    10748.612            0            0   -12477.138   -8.4633119    1496.4509     13.05779     16.19337    14.926106    3156.1196 
  295500    310.68823   -1378.4676    -1201.582   -1378.4676    283.65136    10813.936            0            0   -12476.055   -8.2667256   -1871.4416    13.379766    16.421455    14.706189    3231.1735 
  296000    322.07122   -1398.5809   -1215.2146   -1398.5809     341.2469    10737.217            0            0   -12477.045   -8.4167732    1418.0698    13.392146    16.030924    14.782213    3173.5707 
  296500    281.38452   -1389.6522   -1229.4502   -1389.6522    341.84726    10745.012            0            0   -12476.511    -8.464386    2007.4623     13.27817    16.264716    14.612133    3155.7191 
  297000    315.09098   -1369.4669   -1190.0747   -1369.4669     264.6089    10842.231            0            0   -12476.307   -8.1240472   -3085.4296    13.283174    16.286541    15.198147    3287.9209 
  297500    294.71422   -1359.9765   -1192.1855   -1359.9765    320.29808    10796.034            0            0   -12476.309   -8.4608088    1102.0273    13.184259     16.32146    14.671253    3157.0533 
  298000    281.29636   -1359.4975   -1199.3457   -1359.4975     305.5657    10810.277            0            0    -12475.34   -8.3070332   -377.41177    13.528388     16.06348    14.796608    3215.4951 
  298500    271.19409   -1386.6166   -1232.2163   -1386.6166    297.05074    10793.068            0            0   -12476.736   -8.3132936   -1553.9255    13.522282    16.375415    14.510366    3213.0737 
  299000    277.45539   -1369.9725   -1212.0075   -1369.9725    292.77911    10814.178            0            0    -12476.93   -8.3684965   -1064.3289    13.183212    16.172939    14.970496    3191.8786 
  299500    276.82733   -1382.7492   -1225.1418   -1382.7492    317.41709    10776.555            0            0   -12476.721   -8.4523993    528.99888    13.113407    16.204797    14.871497    3160.1944 
  300000    296.05022   -1372.3069   -1203.7552   -1372.3069    305.24373    10798.558            0            0   -12476.109   -8.2802455   -410.22905    13.390227    16.492602    14.607419    3225.8977 
  300500    301.58111   -1385.7976    -1214.097   -1385.7976    324.96465    10765.424            0            0   -12476.186   -8.3935582    664.60347    13.552619    15.806701    14.855362    3182.3482 
  301000    303.92166   -1386.5995   -1213.5664   -1386.5995    315.96135    10774.192            0            0   -12476.753   -8.3916786    158.56646    13.275837     16.41593    14.605537     3183.061 
  301500    287.63793   -1376.7278   -1212.9655   -1376.7278    309.05443    10791.112            0            0   -12476.894   -8.3014325   -220.62081    13.231642    16.106271    15.098438    3217.6645 
  302000    321.21003   -1379.4706   -1196.5945   -1379.4706    301.77352    10794.331            0            0   -12475.575   -8.3914634   -152.05127    13.267469    16.752638    14.321378    3183.1426 
  302500    334.56648   -1397.4513    -1206.971   -1397.4513     337.1069    10742.592            0            0   -12477.151   -8.5232851    1416.9344    13.365649    15.850175    14.793219    3133.9119 
  303000    297.03208   -1372.0805   -1202.9698   -1372.0805    298.45261    10806.565            0            0   -12477.098      -8.2783   -780.96763    13.267748    16.481657    14.755521    3226.6558 
  303500    268.22466   -1377.0674   -1224.3578   -1377.0674    312.84391    10787.732            0            0   -12477.643   -8.3715777    20.079078     13.26565    16.247444     14.80379    3190.7038 
  304000    317.39817   -1390.0407   -1209.3349   -1390.0407    318.35153    10767.803            0            0   -12476.195   -8.3934558     262.5196    13.182948    16.121642    14.973771     3182.387 
  304500    301.20367   -1383.4802   -1211.9945   -1383.4802    311.96731    10781.411            0            0   -12476.858   -8.3823428    208.47822    13.360475    16.470792    14.480782    3186.6061 
  305000    300.35637   -1392.4845   -1221.4812   -1392.4845     320.8174    10764.123            0            0   -12477.425   -8.3663827   -27.468345    13.456659    15.805855    15.010696     3192.685 
  305500    334.00185   -1376.0255   -1185.8667   -1376.0255    313.73018    10786.479            0            0   -12476.235    -8.407347    673.20217    13.147093     16.53032    14.619208    3177.1288 
  306000    293.53465   -1385.7425    -1218.623   -1385.7425     300.8544    10790.009            0            0   -12476.606   -8.3550474   -883.09902    13.200565    15.951576    15.182691    3197.0165 
  306500    303.52918    -1378.557   -1205.7473    -1378.557    307.97395    10789.537            0            0   -12476.068   -8.4418766    237.51272    13.341847    16.672598    14.224453    3164.1335 
  307000    287.46093   -1381.2857   -1217.6242   -1381.2857    333.15506    10761.074            0            0   -12475.515   -8.4184495    1323.8281    13.420384    15.951736    14.821385    3172.9388 
  307500    300.04082    -1384.706   -1213.8823    -1384.706    303.05549    10788.615            0            0   -12476.377   -8.3329976   -680.51429    13.338022    16.297838    14.745895    3205.4761 
  308000    321.65368   -1398.5447   -1215.4161   -1398.5447    301.55563    10777.163            0            0   -12477.264   -8.3949567   -981.96306    13.091456    16.189879    15.012181    3181.8181 
  308500    278.60725   -1377.3765   -1218.7557   -1377.3765    326.89118    10773.302            0            0   -12477.569    -8.533701    1445.8802    13.169134    16.177636    14.692108    3130.0868 
  309000    296.13742   -1374.9007   -1206.2994   -1374.9007    310.67706     10790.34            0            0   -12475.918   -8.3798285    180.96765    13.433094    16.194728    14.652407    3187.5622 
  309500    329.77161    -1362.772   -1175.0216    -1362.772    340.75311    10772.272            0            0   -12475.797   -8.4396253    2670.1081    13.318018    16.050444    14.806213    3164.9776 
  310000     263.8273   -1377.9832   -1227.7772   -1377.9832    285.22257    10813.772            0            0   -12476.977   -8.3371529   -1525.1913    13.143078    16.521994    14.754228    3203.8785 
  310500    296.13534   -1398.5687   -1229.9686   -1398.5687    347.15779    10731.183            0            0    -12476.91   -8.3945419    1821.5534    13.269806    15.799459    15.177143    3181.9753 
  311000    296.20941   -1380.2682   -1211.6259   -1380.2682    311.15699    10784.177            0            0   -12475.603   -8.3059091   -209.95417    13.461147    16.439166    14.532649    3215.9303 
  311500    314.06674   -1372.7258   -1193.9167   -1372.7258    298.34766    10804.925            0            0   -12475.999    -8.317431   -624.32759    13.421457     16.10927    14.853509    3211.4754 
  312000     307.5364   -1392.9931    -1217.902   -1392.9931    286.55119    10795.858            0            0   -12475.402   -8.2261723   -2249.1434    13.194797    16.355198    15.046569    3247.1025 
  312500    308.59896   -1388.2057   -1212.5096   -1388.2057     315.1214    10773.189            0            0   -12476.516    -8.335335    -55.59851    13.182995    16.296885    14.915989    3204.5772 
  313000     284.5652   -1392.9015   -1230.8886   -1392.9015     318.4275    10765.728            0            0   -12477.057   -8.3907104   -171.33885    13.454065    16.017762    14.772014    3183.4283 
  313500    296.75111   -1336.0638   -1167.1131   -1336.0638    311.63184    10826.952            0            0   -12474.648    -8.365039     1029.693    13.399823    16.397524    14.532774    3193.1979 
  314000    328.82836    -1374.813   -1187.5996    -1374.813    289.61322    10812.383            0            0   -12476.809   -8.3176513   -1341.0993    13.085038    16.114946    15.229627    3211.3903 
  314500    290.84042   -1397.5062   -1231.9206   -1397.5062    320.93927    10758.254            0            0   -12476.699   -8.3820067    260.77984    13.186771    16.495196    14.650412    3186.7339 
  315000    292.24702   -1384.0884    -1217.702   -1384.0884    315.31408    10777.384            0            0   -12476.786   -8.3222396   -143.70783    13.414203    16.150229    14.815285    3209.6198 
  315500    299.88233   -1394.2482   -1223.5148   -1394.2482    331.92692    10749.711            0            0   -12475.886   -8.3985619    989.45891    13.398984    16.155688     14.69236    3180.4522 
  316000    289.03412   -1367.1966   -1202.6394   -1367.1966    284.39404    10825.356            0            0   -12476.947   -8.1510883   -1684.4325    13.248638    16.503432    14.987621    3277.0133 
  316500    308.52259   -1383.0862   -1207.4336   -1383.0862    315.64408    10778.219            0            0    -12476.95   -8.3762573    83.359479    13.137243     16.20674    14.977658    3188.9212 
  317000    298.56079   -1386.0365   -1216.0555   -1386.0365    316.80249     10772.12            0            0   -12474.959   -8.3954163     210.1519    13.394743    16.301217    14.571262    3181.6439 
  317500    331.37938   -1357.9527   -1169.2869   -1357.9527    287.73058    10830.104            0            0   -12475.787   -8.3882857   -1128.1628    13.459391    15.795276    14.978487    3184.3485 
  318000    258.35729   -1361.8821   -1214.7903   -1361.8821     285.1752    10829.834            0            0   -12476.891   -8.3990108   -1046.1175    13.064791    16.441594     14.80537    3180.2822 
  318500    307.35802   -1381.0267   -1206.0372   -1381.0267    307.63384    10788.218            0            0   -12476.878   -8.4589842    100.95942    13.183492    16.046922    14.926342    3157.7343 
  319000    310.06343   -1361.4506   -1184.9207   -1361.4506    277.18323    10837.324            0            0   -12475.958   -8.3674967   -1572.7397    13.553939    16.156787    14.577321      3192.26 
  319500    297.42304   -1381.5233     -1212.19   -1381.5233    305.79643    10789.403            0            0   -12476.722   -8.5845013   -140.82862    13.190232    16.013852    14.730941     3111.564 
  320000    287.17948   -1384.7656   -1221.2644   -1384.7656    290.12419    10801.608            0            0   -12476.498   -8.3666197   -1467.7853    13.105468    16.271742     14.97122    3192.5946 
  320500    283.65624    -1374.819   -1213.3237    -1374.819    305.98107     10796.41            0            0    -12477.21   -8.4451445   -174.88903    13.153941    16.227739    14.817428    3162.9092 
  321000    326.03411   -1372.9474   -1187.3249   -1372.9474     308.6537      10795.6            0            0   -12477.201   -8.5738738    348.59228    13.517453    15.863039    14.528991    3115.4208 
  321500    286.99037   -1373.6486    -1210.255   -1373.6486    336.58094    10766.238            0            0   -12476.467   -8.5734995     2209.901    13.334208    16.029383    14.576447    3115.5568 
  322000    303.36354   -1382.2955   -1209.5801   -1382.2955    293.97152    10800.448            0            0   -12476.715   -8.4056934   -1157.0825    13.101596    16.279233    14.899172    3177.7539 
  322500    312.46635   -1370.7911   -1192.8932   -1370.7911    298.99279    10806.803            0            0   -12476.587   -8.3961906   -392.49995    13.183938    16.165696     14.92698    3181.3504 
  323000    302.85018   -1384.9206   -1212.4975   -1384.9206     304.7116    10786.972            0            0   -12476.604   -8.4417602   -664.89041    13.295547    16.090081     14.79096    3164.1772 
  323500    318.82609   -1375.3266   -1193.8079   -1375.3266      313.693    10788.166            0            0   -12477.186   -8.4498997    413.91385    13.434755    16.080652    14.632173    3161.1292 
  324000    328.63145   -1389.9032   -1202.8019   -1389.9032    289.02525    10797.434            0            0   -12476.363   -8.2975454   -1680.1062    13.164973    16.220366    15.075216    3219.1719 
  324500    284.67996   -1377.7684   -1215.6903   -1377.7684    291.56092    10807.404            0            0   -12476.733   -8.3436802   -1404.7834    13.034242    16.453222    14.927924    3201.3721 
  325000    342.94776   -1374.5106   -1179.2585   -1374.5106    313.35167    10788.972            0            0   -12476.834   -8.3535737    348.66171    13.453434    15.994624    14.859846    3197.5805 
  325500    323.80647   -1385.0686   -1200.7143   -1385.0686    319.31114    10771.921            0            0     -12476.3   -8.4242442    386.73593    13.391612    16.197973    14.617373    3170.7562 
  326000    312.73162   -1370.5399    -1192.491   -1370.5399    316.39665    10789.562            0            0   -12476.499   -8.4329651      686.483    13.119971    16.025644    15.064861    3167.4772 
  326500    285.26134   -1362.2688   -1199.8596   -1362.2688    282.58564      10831.9            0            0   -12476.755   -8.3259371   -1201.0273    13.070447    16.627618    14.761831    3208.1944 
  327000    280.22663   -1346.5172   -1186.9744   -1346.5172    304.24457    10825.161            0            0   -12475.923   -8.4422458    116.64331    13.508759     15.81903    14.806094    3163.9952 
  327500    289.99293   -1366.7472   -1201.6441   -1366.7472    300.31537    10808.816            0            0   -12475.878   -8.4522415   -224.70204    13.263775    16.272223    14.642252    3160.2534 
  328000    315.84534   -1358.8136   -1178.9919   -1358.8136    270.82969    10846.328            0            0   -12475.972   -8.3150955   -2114.7126    13.188315    16.215025    15.021719    3212.3774 
  328500    283.13578   -1344.9092   -1183.7102   -1344.9092    281.27043    10849.287            0            0   -12475.467   -8.3787561   -1191.9099    13.266628    16.157022    14.872788    3187.9702 
  329000    316.36063   -1374.3454   -1194.2303   -1374.3454    287.93577    10813.624            0            0   -12475.905   -8.3585722   -1342.0515    13.762356     16.12779    14.397731    3195.6684 
  329500    297.27953   -1386.2555   -1217.0039   -1386.2555    318.66403    10772.291            0            0   -12477.211   -8.4797361    756.03883    13.252862    16.033225    14.824528    3150.0066 
  330000    269.68466   -1385.7286   -1232.1877   -1385.7286    318.04432    10773.449            0            0   -12477.222    -8.349039    408.20503    13.049788    16.455076    14.898892    3199.3173 
  330500    266.68233   -1378.0487   -1226.2172   -1378.0487    319.79795    10778.662            0            0   -12476.509   -8.5447177    861.46087    13.123365    16.094521    14.800379    3126.0512 
  331000    304.74496    -1377.776   -1204.2741    -1377.776    332.96199    10765.397            0            0   -12476.136   -8.4686868    1497.6183    13.418932    16.049796    14.645029    3154.1165 
  331500    324.99459   -1374.2745   -1189.2438   -1374.2745    280.62457    10821.423            0            0   -12476.322   -8.2464154   -2091.7176    13.480758    16.250638    14.785768    3239.1316 
  332000     299.3947   -1377.2883   -1206.8325   -1377.2883    315.29172    10784.947            0            0   -12477.527   -8.5412343    764.79458    13.060122    16.172445    14.806426    3127.3261 
  332500    272.96076   -1378.8581   -1223.4521   -1378.8581    283.52107    10813.481            0            0    -12475.86    -8.353634   -1977.8394    13.144281    16.347866      14.8806    3197.5575 
  333000    311.71235   -1380.1921   -1202.7234   -1380.1921    283.66573    10813.046            0            0   -12476.904   -8.3495203   -2044.1186    13.610716    16.095816    14.602873    3199.1329 
  333500     292.6855   -1375.0463   -1208.4103   -1375.0463    284.13124    10817.263            0            0    -12476.44   -8.3543378   -1706.8676    13.380282    16.158581    14.788132    3197.2881 
  334000    285.99242   -1403.2667   -1240.4413   -1403.2667     312.0682    10761.065            0            0     -12476.4   -8.3938979   -542.51696    13.209929    16.203872    14.866572    3182.2194 
  334500    252.11119   -1394.4771   -1250.9414   -1394.4771    336.92449    10744.463            0            0   -12475.865    -8.460076    1244.8394    13.163467    16.133815    14.866618    3157.3268 
  335000    284.06627   -1365.8561   -1204.1273   -1365.8561    324.96249    10785.733            0            0   -12476.552    -8.518363    1218.2589    13.514865    15.941853    14.554159    3135.7228 
  335500    279.00653   -1380.8081     -1221.96   -1380.8081     311.9496    10783.237            0            0   -12475.994   -8.4732584    44.111215    13.383048    16.070963    14.657046    3152.4148 
  336000    337.85628   -1367.8314   -1175.4781   -1367.8314    273.95697    10834.414            0            0   -12476.203   -8.3084088   -1961.9395    13.179063    16.350966    14.919284    3214.9628 
  336500    310.12432   -1358.4355    -1181.871   -1358.4355    323.43086     10793.66            0            0   -12475.526   -8.5652422    2089.5229     12.97405    16.250026     14.79192    3118.5604 
  337000    288.17419    -1379.921   -1215.8535    -1379.921     278.2398    10818.402            0            0   -12476.562   -8.3475774   -2573.4963    13.571912    16.176944    14.574574    3199.8775 
  337500    271.75613   -1358.5154   -1203.7952   -1358.5154     263.6876     10854.13            0            0   -12476.333   -8.2437488   -3179.8915    13.525996    16.160079     14.82369    3240.1794 
  338000    296.80603   -1402.5012   -1233.5192   -1402.5012    338.95041    10735.814            0            0   -12477.266   -8.5594225    1690.8323    13.182716    16.175326    14.634955    3120.6807 
  338500     291.3386   -1385.2526   -1219.3834   -1385.2526    300.70705    10791.461            0            0   -12477.421   -8.2318541   -1305.8871    13.215629    16.414735    14.958031    3244.8613 
  339000    281.01797   -1395.0154   -1235.0221   -1395.0154    314.78583    10766.641            0            0   -12476.442   -8.4156646   -462.75437    13.334119    16.148076    14.740773    3173.9887 
  339500    280.70513   -1391.3189   -1231.5037   -1391.3189     310.3616    10774.959            0            0    -12476.64   -8.3501804   -857.10216    13.675318    16.174382    14.462148      3198.88 
  340000    308.67993   -1376.1148   -1200.3726   -1376.1148    311.25998    10789.636            0            0   -12477.011    -8.338587    58.622933    13.253917    16.200803    14.918341    3203.3275 
  340500    274.68729   -1361.5564   -1205.1674   -1361.5564    317.68478    10796.339            0            0    -12475.58   -8.4370852    1158.3773    13.044977    16.447179    14.755932    3165.9304 
  341000    316.21513   -1377.1887   -1197.1564   -1377.1887    306.09843    10792.831            0            0   -12476.118   -8.3502924   -622.31588    13.441369    15.975228    14.897094    3198.8371 
  341500    334.19094   -1363.5032   -1173.2367   -1363.5032    312.05306    10800.031            0            0   -12475.587   -8.3210196    399.39127    13.613446    16.327175    14.442358    3210.0904 
  342000    284.30371   -1398.8314   -1236.9674   -1398.8314     313.5747    10764.455            0            0   -12476.861   -8.3810683   -381.97627    13.301193     16.11619     14.86762    3187.0907 
  342500    274.90116   -1396.3458    -1239.835   -1396.3458    324.59173     10756.48            0            0   -12477.418   -8.5056429    842.58769    13.101613    16.325945    14.681944    3140.4122 
  343000    314.83666   -1384.4035   -1205.1561   -1384.4035    315.90931     10776.51            0            0   -12476.823   -8.3517723    2.9410989    13.240426    16.187482    14.922236    3198.2702 
  343500    303.95575   -1383.8913   -1210.8387   -1383.8913    319.71261     10772.86            0            0   -12476.464   -8.4279786    450.25726    13.538514    16.090652    14.548752    3169.3513 
  344000    305.98842   -1385.8813   -1211.6715   -1385.8813    326.07459    10764.797            0            0   -12476.753   -8.4612023    1224.3558    13.286827    16.287115    14.588017    3156.9065 
  344500    301.15219   -1364.1972   -1192.7408   -1364.1972    312.77133    10799.465            0            0   -12476.434   -8.3932918     798.0114    13.094172    16.161145    15.038735    3182.4492 
  345000    312.54482   -1372.8996    -1194.957   -1372.8996    300.81955    10802.973            0            0   -12476.692   -8.3750454   -308.16338    13.133023    16.565847    14.659808    3189.3827 
  345500    290.91381   -1386.9287   -1221.3013   -1386.9287    318.97499    10771.006            0            0    -12476.91   -8.3522035    55.968964    13.481195    15.761382    15.051162    3198.1051 
  346000    299.41525   -1377.0949   -1206.6274   -1377.0949     344.7893    10754.582            0            0   -12476.466   -8.4635418    2484.2538    13.337297    16.560747    14.288739    3156.0339 
  346500    281.86169   -1383.5609   -1223.0872   -1383.5609    301.49557    10791.488            0            0   -12476.545   -8.3125492    -1167.199    13.313565    16.026823     15.05975    3213.3614 
  347000    272.63527   -1393.8866   -1238.6659   -1393.8866    326.11524     10757.33            0            0   -12477.332   -8.4531698    910.76564    13.189142    16.371779    14.633957    3159.9063 
  347500    290.06911   -1383.6301   -1218.4837   -1383.6301    327.70449    10765.715            0            0    -12477.05   -8.3598751    623.80953    13.461989    16.003094    14.831355    3195.1703 
  348000    299.14319   -1390.4603   -1220.1477   -1390.4603    322.82377    10762.511            0            0   -12475.795   -8.4083963     577.6412     13.42749    15.986502    14.798999    3176.7324 
  348500    320.18393   -1377.3432   -1195.0513   -1377.3432    294.09762    10805.519            0            0   -12476.959   -8.3989286   -789.90017    13.200046    16.428246    14.665715    3180.3133 
  349000    274.53611    -1411.247   -1254.9441    -1411.247    325.49328    10740.586            0            0   -12477.326    -8.420389   -204.91359    13.254782    15.918906    15.034045    3172.2079 
  349500    292.45948   -1377.0142   -1210.5069   -1377.0142    313.39009    10786.184            0            0   -12476.588   -8.4202795    469.14504    13.217627    16.649829    14.414648    3172.2492 
  350000    320.48152   -1380.6928   -1198.2315   -1380.6928    326.47665    10768.778            0            0   -12475.947   -8.3804904    794.39595    13.451461     15.73735    15.056474    3187.3105 
  350500    288.25816   -1379.9297   -1215.8144   -1379.9297    300.31355     10796.72            0            0   -12476.963   -8.3718339   -787.77173    13.312111    16.465662    14.556169    3190.6062 
  351000    338.56261   -1405.9299   -1213.1745   -1405.9299     325.3546     10745.68            0            0   -12476.965   -8.4384054    523.33365    13.250342    16.016865    14.915191    3165.4351 
  351500    298.88562    -1365.357   -1195.1911    -1365.357    296.55061    10815.486            0            0   -12477.394   -8.3330187   -442.63436    13.204805    16.439346     14.76641     3205.468 
  352000    284.99525   -1379.7358   -1217.4781   -1379.7358    306.37822    10790.456            0            0    -12476.57    -8.395267   -322.69486    13.318873    16.312369    14.644507    3181.7005 
  352500    289.73713   -1357.1876   -1192.2302   -1357.1876    308.75893    10809.697            0            0   -12475.643   -8.2906119    217.51714      13.3926    15.916984    15.114073    3221.8641 
  353000    293.89244   -1382.8306   -1215.5075   -1382.8306    331.26084    10762.668            0            0    -12476.76   -8.5201656    1822.0974    13.133687    16.453064    14.508159    3135.0594 
  353500     319.4866   -1372.2752   -1190.3804   -1372.2752    301.45166    10802.703            0            0    -12476.43   -8.3901973   -119.43857    13.234516    15.835611    15.190734    3183.6229 
  354000    291.10331   -1358.9025   -1193.1672   -1358.9025    308.66999    10808.986            0            0   -12476.559   -8.4547456    650.20606      13.2407    16.400709    14.548549    3159.3174 
  354500    314.07372   -1369.7434   -1190.9304   -1369.7434    292.03489    10815.042            0            0   -12476.821   -8.4003289    -1177.747     13.54502    15.879697    14.783445    3179.7832 
  355000    304.54064     -1390.02   -1216.6345     -1390.02    322.46109    10764.615            0            0   -12477.096   -8.4136291    555.14005     13.20003    16.247006    14.803424    3174.7566 
  355500    308.96343   -1386.2489   -1210.3453   -1386.2489    304.24162    10786.095            0            0   -12476.586   -8.3484679   -479.50099    13.195872    16.403287    14.781484    3199.5362 
  356000    307.86635   -1401.6399   -1226.3609   -1401.6399     324.8568    10750.277            0            0   -12476.774   -8.4185854     113.2121    13.371362    15.836601    14.983631    3172.8876 
  356500    298.65082   -1380.7527   -1210.7205   -1380.7527     310.5888    10785.024            0            0   -12476.365   -8.3851866    203.18224    13.359585    16.742824     14.24162    3185.5254 
  357000    308.73486   -1387.7546   -1211.9811   -1387.7546    311.11978    10778.041            0            0   -12476.916   -8.4149162   -588.84247    13.345531    15.788668    15.064775     3174.271 
  357500    309.06383   -1387.3542   -1211.3934   -1387.3542     332.8807    10756.094            0            0   -12476.329   -8.4079239    1383.0062    13.168723    16.481599    14.637335    3176.9109 
  358000    311.31204   -1355.0762   -1177.8355   -1355.0762    301.37534    10820.043            0            0   -12476.495   -8.3757649    62.777245    13.208677    16.071805    15.022608    3189.1087 
  358500    269.80784   -1365.9317   -1212.3207   -1365.9317     296.8204    10813.692            0            0   -12476.445   -8.3694924   -602.60304    13.591199     16.31433    14.393542    3191.4988 
  359000    295.17566   -1352.0951   -1184.0413   -1352.0951    263.12264    10860.774            0            0   -12475.992   -8.2952271   -2748.6631      13.3405    16.333814    14.777665    3220.0715 
  359500    282.72933   -1353.2963   -1192.3287   -1353.2963    275.31808    10847.675            0            0   -12476.289   -8.3787418   -1757.2248    13.254152    16.098165    14.941242    3187.9756 
  360000    325.61551   -1365.7476   -1180.3634   -1365.7476     309.1479    10802.048            0            0   -12476.944   -8.5274504    827.96296    13.197402    16.408336    14.465105    3132.3811 
  360500    323.05582   -1401.6108   -1217.6839   -1401.6108     318.0103    10757.389            0            0    -12477.01   -8.3933526   -265.95975    13.499562    15.659976    15.053849    3182.4261 
  361000    289.61553   -1389.4297   -1224.5415   -1389.4297    320.10716    10767.398            0            0   -12476.935   -8.5134234    702.57012    13.228093    16.392768    14.469051    3137.5422 
  361500    291.67279   -1372.9139   -1206.8545   -1372.9139    315.28409    10788.383            0            0   -12476.581   -8.4505143    646.16824    13.149956    16.049129    14.977346    3160.8993 
  362000    284.52914   -1371.9153    -1209.923   -1371.9153    282.05002    10822.569            0            0   -12476.534   -8.3884353   -1674.1176    13.178312     16.38867    14.743797    3184.2917 
  362500    309.79167   -1367.5097   -1191.1345   -1367.5097    302.52919    10806.511            0            0    -12476.55   -8.5259373    143.23521    13.395936    16.047301    14.573928     3132.937 
  363000    288.99431   -1373.0821   -1208.5476   -1373.0821    275.19297    10828.459            0            0   -12476.734   -8.3094278   -2471.8884    13.458013    16.095625        14.84    3214.5685 
  363500    322.09718   -1404.8778   -1221.4967   -1404.8778    335.55156     10737.25            0            0    -12477.68   -8.5318338    1581.7449    13.124769    16.403901    14.541614    3130.7718 
  364000    304.04823   -1353.5632    -1180.458   -1353.5632    332.87049    10789.887            0            0    -12476.32   -8.4704192    2456.4619     13.07703    15.812124    15.250693    3153.4714 
  364500     272.7338   -1393.8528    -1238.576   -1393.8528    304.75422    10778.737            0            0   -12477.344   -8.3821251    -746.4396    13.380798    16.599842    14.346755    3186.6889 
  365000    333.32159   -1375.5053   -1185.7337   -1375.5053    310.79968    10790.169            0            0   -12476.474   -8.3825596    115.69101    13.407118    15.947257    14.903756    3186.5237 
  365500    298.23328   -1391.1129   -1221.3183   -1391.1129    355.10755    10730.694            0            0   -12476.915   -8.5638589    3117.7931    13.136808    16.224355    14.634134    3119.0641 
  366000    280.31327    -1376.675   -1217.0829    -1376.675    311.60688    10788.553            0            0   -12476.835   -8.3696052    206.88282    13.154109    16.393459    14.799832    3191.4558 
  366500    286.95032   -1366.4524   -1203.0816   -1366.4524    308.46444    10801.933            0            0    -12476.85     -8.45635    17.481884    13.385637    15.743159    14.989251     3158.718 
  367000    273.74122   -1361.9475   -1206.0971   -1361.9475    300.60164    10813.631            0            0    -12476.18   -8.5436482    105.29079    13.258226    16.544693    14.253001    3126.4425 
  367500    303.63955   -1384.4885    -1211.616   -1384.4885    296.09592    10794.638            0            0   -12475.222   -8.3205201   -1264.9093    13.277865    16.008999    15.102571    3210.2831 
  368000    296.07196    -1380.164      -1211.6    -1380.164    303.53964    10793.086            0            0    -12476.79   -8.3897487   -325.95782    13.247788    16.442377    14.616281    3183.7932 
  368500    282.09584   -1389.7146   -1229.1076   -1389.7146    321.46961    10765.396            0            0    -12476.58   -8.4855944    378.35871    13.459522     15.92936    14.681944    3147.8319 
  369000    313.93099   -1374.9745   -1196.2427   -1374.9745     293.2254    10808.725            0            0   -12476.925   -8.4492981   -956.62028    13.249266    16.193278    14.734879    3161.3543 
  369500    283.92484   -1389.8664   -1228.2181   -1389.8664    307.54385    10779.932            0            0   -12477.342    -8.485021   -310.72856    13.041652    16.369606    14.745857    3148.0446 
  370000    299.50199    -1371.161   -1200.6442    -1371.161    278.67679     10826.52            0            0   -12476.358   -8.2959139    -2054.618    13.297912    16.216689    14.930829     3219.805 
  370500    258.17028   -1391.4565   -1244.4712   -1391.4565    369.50444    10716.967            0            0   -12477.928   -8.6107905    3791.0579    13.328049    16.160697    14.402044    3102.0642 
  371000    312.54736   -1378.8045   -1200.8604   -1378.8045    284.84603    10813.346            0            0   -12476.997   -8.2628065   -1946.2518    13.370801    16.146499    14.973745    3232.7061 
  371500    288.69216   -1375.5132   -1211.1508   -1375.5132    331.36668    10769.852            0            0   -12476.732   -8.4541053    1650.2719     13.14559    16.267408    14.775007    3159.5567 
  372000    288.62414   -1380.7473   -1216.4236   -1380.7473    317.83313    10777.841            0            0   -12476.421   -8.3377907    249.57781    13.227586    16.252873    14.901572    3203.6334 
  372500    310.37402   -1367.7251   -1191.0184   -1367.7251    285.80976    10822.033            0            0   -12475.568   -8.2095891   -1452.0962    13.614716    16.236656    14.718624    3253.6616 
  373000    345.69945   -1388.5831   -1191.7644   -1388.5831    328.26693    10759.638            0            0   -12476.488   -8.4854165    1410.8921    13.404006    16.075748     14.60881    3147.8979 
  373500    301.92561   -1379.0955   -1207.1987   -1379.0955    293.74695    10803.786            0            0   -12476.628   -8.3233879   -1193.1652    13.170016    16.350315    14.903258     3209.177 
  374000    296.49556   -1393.1016   -1224.2964   -1393.1016     323.4587    10760.474            0            0   -12477.034   -8.4494412    748.63736     13.08103    16.286453    14.838751    3161.3007 
  374500    303.34741   -1372.4972    -1199.791   -1372.4972    293.70104    10809.396            0            0   -12475.594   -8.3385032   -1361.0536    13.570579    16.107155     14.65509    3203.3596 
  375000    305.27922   -1385.1169   -1211.3109   -1385.1169    297.84444    10793.228            0            0   -12476.189   -8.3762201   -905.26038    13.530787    16.143051    14.599468    3188.9354 
  375500    276.16197   -1395.0361   -1237.8075   -1395.0361      306.538     10775.49            0            0   -12477.064   -8.4563974   -830.96229    13.175082    16.120133    14.872585    3158.7003 
  376000     276.9502   -1381.9413   -1224.2639   -1381.9413    288.86321    10805.719            0            0   -12476.524   -8.3907556   -1578.5264    13.105269    16.393625    14.817393    3183.4111 
  376500    315.13165   -1372.3743    -1192.959   -1372.3743    325.74794    10779.208            0            0   -12477.331   -8.5495948    1549.4747    13.224124    16.072003    14.699798    3124.2679 
  377000    293.24189   -1360.7428     -1193.79   -1360.7428    311.39705    10803.862            0            0   -12476.002   -8.2803613    283.01403    13.511761    16.217528    14.721358    3225.8526 
  377500    326.98635   -1388.3186   -1202.1539   -1388.3186    330.19695    10758.544            0            0   -12477.059   -8.5758313    1724.4059    13.290471    16.150008    14.511238    3114.7097 
  378000    310.08038   -1395.9676   -1219.4281   -1395.9676    312.15081    10769.121            0            0   -12477.239   -8.3416281   -196.87649    13.082356    16.221972    15.088753    3202.1596 
  378500    269.05137   -1395.7375   -1242.5572   -1395.7375    325.99653    10753.965            0            0   -12475.699   -8.4866824    845.75872    13.158222    16.178371    14.785087    3147.4283 
  379000    321.42945    -1399.063   -1216.0621    -1399.063    328.23671     10749.35            0            0    -12476.65   -8.4902066    665.50945    13.312261    16.095035    14.683575    3146.1219 
  379500     281.4618     -1372.82   -1212.5741     -1372.82    300.99399    10802.845            0            0    -12476.66   -8.3530746    -611.0689    13.498419     16.17575    14.645363    3197.7716 
  380000    290.63056   -1371.0627   -1205.5966   -1371.0627    289.99427    10815.203            0            0    -12476.26   -8.3719956   -1141.5851     13.22756    16.197314    14.891625    3190.5445 
  380500     289.7657   -1358.6367    -1193.663   -1358.6367     310.8226    10806.324            0            0   -12475.783   -8.4687132    760.16675    12.981356    16.349608    14.861032    3154.1067 
  381000    282.95782   -1381.2859   -1220.1882   -1381.2859    292.38528    10803.378            0            0   -12477.049    -8.253053   -1923.4909    13.326245    16.169213    15.020434    3236.5265 
  381500    299.75418   -1388.8655    -1218.205   -1388.8655    334.06526    10752.795            0            0   -12475.726    -8.452961    1399.3471    13.448081    16.212844    14.493237    3159.9844 
  382000     311.4327   -1366.3775   -1189.0681   -1366.3775    299.74718    10810.088            0            0   -12476.212   -8.3972459   -434.38175    13.261446    16.203295    14.803442    3180.9506 
  382500     300.9624    -1384.989   -1213.6407    -1384.989    320.65072    10770.982            0            0   -12476.622    -8.405235    506.19495     13.28119    16.236143    14.737509    3177.9272 
  383000    332.83752    -1384.852   -1195.3561    -1384.852    310.22586    10781.842            0            0    -12476.92    -8.498936    88.415166    13.243645    16.066993    14.770225    3142.8905 
  383500    301.65123   -1389.0901   -1217.3496   -1389.0901     309.4639    10778.437            0            0   -12476.991   -8.4411749   -340.43004    13.237002    16.212072     14.74561    3164.3966 
  384000    322.28205    -1369.005   -1185.5187    -1369.005     293.3174     10813.75            0            0   -12476.072   -8.3521242   -626.83958    13.142483    16.434728    14.806654    3198.1355 
  384500    286.09035   -1359.6572    -1196.776   -1359.6572    299.45084     10816.78            0            0   -12475.888   -8.3090197   -359.20781    13.405464    16.061609    14.930457    3214.7264 
  385000    291.14109   -1363.4445   -1197.6877   -1363.4445    296.14314    10817.403            0            0   -12476.991   -8.5023406   -343.69318    13.438827    16.277411    14.361792    3141.6319 
  385500    291.61552   -1370.1631   -1204.1362   -1370.1631    314.96673    10791.244            0            0   -12476.374   -8.2718432    139.98648    13.325664    16.083233    15.067087    3229.1744 
  386000    297.81199   -1382.4027    -1212.848   -1382.4027    301.07408    10792.936            0            0   -12476.413   -8.3673616   -572.11138    13.137402    16.504486    14.722915    3192.3115 
  386500    273.56613   -1379.1663   -1223.4156   -1379.1663    335.31399    10762.393            0            0   -12476.873   -8.4925329    1588.5306     13.40037    15.827949    14.829111    3145.2601 
  387000    305.53359   -1386.1384   -1212.1875   -1386.1384    315.85114    10773.339            0            0   -12475.328   -8.3156118    92.686411    13.475976    16.293654    14.629209    3212.1779 
  387500    294.70022   -1371.8514   -1204.0683   -1371.8514    322.45172    10781.754            0            0   -12476.057   -8.3006622    647.32671     13.33914    16.318514    14.783342    3217.9631 
  388000    302.01414   -1367.4814   -1195.5343   -1367.4814    295.33833    10813.714            0            0   -12476.534   -8.3864575   -540.79279      13.1303     16.19703    14.976324    3185.0426 
  388500    301.58476   -1380.3893   -1208.6866   -1380.3893    307.17086    10789.145            0            0   -12476.706   -8.4177648   -58.420375    13.199852    16.380002    14.676212    3173.1969 
  389000    299.91497    -1380.195    -1209.443    -1380.195    287.95906    10808.498            0            0   -12476.652   -8.2684615   -1990.9596    13.658159    15.862612    14.910844    3230.4952 
  389500    312.27583   -1379.1981   -1201.4086   -1379.1981      305.268    10792.001            0            0   -12476.467   -8.3933073    81.741833     13.24784    16.485271    14.572011    3182.4433 
  390000    341.11794   -1369.1228   -1174.9125   -1369.1228    285.34677    10821.246            0            0   -12475.715   -8.3469755   -1369.9646    13.179325    16.178566    15.008298    3200.1082 
  390500    317.33713   -1367.3147   -1186.6437   -1367.3147     318.2856    10791.111            0            0   -12476.712   -8.3301971    797.62131    13.290281    16.422152    14.691776    3206.5537 
  391000    302.55867   -1379.6718   -1207.4146   -1379.6718    291.39541    10805.634            0            0   -12476.701   -8.3783927   -1427.4306    13.566115    15.950133     14.73375    3188.1085 
  391500    307.03381    -1355.378    -1180.573    -1355.378    331.63981    10788.967            0            0   -12475.985   -8.4280102    2261.9358     13.27118    16.426562    14.538264    3169.3394 
  392000    298.87468   -1390.3106   -1220.1509   -1390.3106    320.16919    10766.201            0            0   -12476.681   -8.4514629     704.1752    13.011517    16.216269    14.979008    3160.5445 
  392500      278.936   -1375.2995   -1216.4915   -1375.2995    314.48601    10785.924            0            0   -12475.709   -8.5050659    610.93523    13.165207    16.203763    14.722194    3140.6253 
  393000    295.94617   -1374.5991   -1206.1066   -1374.5991    316.07515     10785.14            0            0   -12475.815   -8.3816898    365.00423    13.581127     16.10835    14.567176    3186.8544 
  393500    285.29877   -1387.0397   -1224.6092   -1387.0397    318.82228    10770.901            0            0   -12476.763   -8.4958745    706.11573    13.349242    16.091631    14.636224     3144.023 
  394000     261.6342   -1378.7998   -1229.8424   -1378.7998    305.88893    10791.713            0            0   -12476.402   -8.3935829   -418.19578    13.143161    16.245008    14.904818    3182.3388 
  394500    303.93435   -1364.0083   -1190.9679   -1364.0083    308.92658    10803.065            0            0   -12475.999   -8.4523929    706.45164    13.088122    16.345964    14.771556    3160.1968 
  395000    294.41074   -1343.2125   -1175.5943   -1343.2125    302.66827    10829.732            0            0   -12475.613   -8.3068699   -17.471868    13.586663    16.077152    14.720904    3215.5583 
  395500    312.45333    -1392.701   -1214.8104    -1392.701    311.65621    10771.694            0            0   -12476.052   -8.4074885   -202.65606     13.36454    16.219538    14.656661    3177.0754 
  396000    291.70915    -1377.631   -1211.5508    -1377.631    298.21359    10801.445            0            0   -12477.289   -8.3844159    -337.3043    13.010651     16.42939     14.90392    3185.8182 
  396500    303.47595   -1369.8733   -1197.0939   -1369.8733    333.39994    10773.964            0            0   -12477.238   -8.4890318    1963.3195    13.218171    16.111138     14.77536    3146.5573 
  397000    291.48829   -1394.3499   -1228.3955   -1394.3499    318.68191    10764.154            0            0   -12477.186   -8.4293285    269.80651    13.317624    16.153337    14.730308    3168.8437 
  397500    302.02495   -1367.9817   -1196.0284   -1367.9817    296.98782    10810.899            0            0   -12475.868   -8.4185162   -898.20282    13.310135    16.107689    14.799347    3172.9136 
  398000     308.5581   -1376.5495   -1200.8767   -1376.5495    323.08276    10776.652            0            0   -12476.284   -8.4794199    1132.9496    13.327727    16.224523    14.567989    3150.1241 
  398500    293.38084   -1376.0987   -1209.0668   -1376.0987    305.08958    10794.985            0            0   -12476.173   -8.3583307   -185.64128    13.193992    16.112599    15.032542    3195.7607 
  399000    271.11492   -1383.9384   -1229.5832   -1383.9384    334.59771    10758.305            0            0   -12476.841   -8.5716941    1903.1316    12.945351    16.346602    14.726035     3116.213 
  399500    281.70662   -1389.8879   -1229.5026   -1389.8879    315.96316    10770.488            0            0   -12476.339   -8.4638662    132.12717    13.416799    16.014553    14.687953    3155.9129 
  400000     294.2986   -1368.8657   -1201.3113   -1368.8657    291.96202    10814.774            0            0   -12475.601   -8.2720689    -1295.971    13.497062    16.197493    14.770412    3229.0864 
  400500    277.31652   -1385.7075   -1227.8216   -1385.7075    319.21048    10771.766            0            0   -12476.684   -8.5096799    453.58565    13.249346    16.229245    14.597813    3138.9224 
  401000    296.89442   -1375.5534   -1206.5211   -1375.5534    310.70361    10790.481            0            0   -12476.738   -8.4446412    378.60813     13.08307    16.136758    14.982581    3163.0976 
  401500    283.54832   -1387.2534   -1225.8195   -1387.2534    302.20031    10787.386            0            0   -12476.839   -8.4284743   -478.17021    13.132966    16.504965    14.620675    3169.1649 
  402000    301.21693   -1375.7493    -1204.256   -1375.7493     328.1363     10772.24            0            0   -12476.126   -8.4051493    1077.7392    13.546682    15.765894    14.879791    3177.9596 
  402500    283.12031   -1368.8449   -1207.6547   -1368.8449    297.54812    10810.762            0            0   -12477.155   -8.3416435   -659.49965    13.404934    16.386968     14.57736    3202.1537 
  403000    321.90433   -1372.6403    -1189.369   -1372.6403    316.14137    10786.551            0            0   -12475.333   -8.4099576    642.08961    13.234742    16.004045    14.995286    3176.1426 
  403500    296.41554   -1354.4793   -1185.7196   -1354.4793    296.17333    10824.461            0            0   -12475.113   -8.2672972   -119.68968    13.149275    16.568658    14.829998    3230.9501 
  404000    296.65052   -1378.9689   -1210.0754   -1378.9689    333.67704    10764.068            0            0   -12476.714   -8.5200038    1693.1391    13.233541    16.107897    14.707509    3135.1189 
  404500    318.76217   -1381.9589   -1200.4766   -1381.9589    342.20414    10752.633            0            0   -12476.796   -8.4127066    2140.6873    13.408758    16.085317    14.721087    3175.1048 
  405000    265.33008   -1393.5923   -1242.5307   -1393.5923    322.37948    10760.827            0            0   -12476.799   -8.3649806    185.06385    13.463025    16.255095    14.591391    3193.2202 
  405500    261.93125   -1382.8455    -1233.719   -1382.8455    321.47791    10771.791            0            0   -12476.114   -8.4840516    740.36592    13.092836    16.244977    14.802588    3148.4043 
  406000    294.03955   -1373.2717   -1205.8648   -1373.2717    276.94104    10826.196            0            0   -12476.409   -8.2462599   -2198.7416    13.182726    16.438638    14.947403    3239.1927 
  406500    295.93516     -1385.46   -1216.9739     -1385.46    307.61197    10783.736            0            0   -12476.808    -8.419183   -458.64458    13.349252    16.185451    14.683923    3172.6623 
  407000    295.76668   -1352.9421   -1184.5518   -1352.9421    285.04372    10838.256            0            0   -12476.242   -8.3362652   -1221.5111    13.621693    16.169612    14.547609    3204.2197 
  407500    300.76093   -1385.0196   -1213.7859   -1385.0196     327.5537    10763.853            0            0   -12476.426   -8.4789656    1147.2557    13.189808    16.214822    14.729916    3150.2929 
  408000    291.53361   -1392.5391   -1226.5589   -1392.5391    319.48037    10764.601            0            0    -12476.62   -8.4715081    285.56555    13.063624    16.177954    14.919209    3153.0661 
  408500    329.70108   -1371.3738   -1183.6636   -1371.3738    310.04804    10795.151            0            0   -12476.573   -8.4205961    610.51755    13.244825    16.266723    14.723284    3172.1299 
  409000    309.30246   -1376.2933   -1200.1967   -1376.2933    296.92473    10802.938            0            0   -12476.156   -8.2922097   -917.03383    13.530693     16.22169    14.675989    3221.2433 
  409500    326.55785   -1363.4818   -1177.5611   -1363.4818    299.45017    10813.929            0            0   -12476.861   -8.3455018    -331.7172    13.490482    16.085696    14.749388    3200.6733 
  410000    328.80422   -1363.8629   -1176.6632   -1363.8629    304.81008    10808.368            0            0   -12477.041   -8.5790145    1018.7708    12.987342    16.406274    14.612555     3113.554 
  410500    288.26314   -1386.8358   -1222.7176   -1386.8358    286.80264    10802.897            0            0   -12476.535   -8.3465729   -1901.7626    13.229396    16.249627    14.886829    3200.2626 
  411000    312.71334   -1374.0976    -1196.059   -1374.0976    324.40287    10777.779            0            0   -12476.279   -8.4370455    1131.4367    13.251664    16.162875     14.78136    3165.9453 
  411500    284.68779   -1378.9769   -1216.8942   -1378.9769    313.66782    10783.628            0            0   -12476.272   -8.3991941    221.89562    13.438623    16.171188    14.633881    3180.2128 
  412000    300.47636   -1394.0315   -1222.9599   -1394.0315    326.40831    10756.867            0            0   -12477.307   -8.4489671    700.28033    13.272824    16.155955    14.743283    3161.4781 
  412500    309.72132    -1393.305   -1216.9699    -1393.305    300.96461    10782.971            0            0   -12477.241   -8.3873225    -1074.686    13.155385    16.447095    14.718979    3184.7142 
  413000    307.44347   -1370.1543    -1195.116   -1370.1543     312.2368    10794.211            0            0   -12476.602   -8.4432673    113.77883    13.304514    15.850136    15.002072    3163.6123 
  413500    321.96012   -1365.5741    -1182.271   -1365.5741    287.38423    10823.363            0            0   -12476.322    -8.401568   -1270.9318    13.439323    16.417219    14.409751    3179.3142 
  414000    273.39805   -1368.6048   -1212.9498   -1368.6048    298.93914    10808.928            0            0   -12476.472   -8.3400786   -879.23868    13.428305    16.025857    14.882682    3202.7546 
  414500    290.13162   -1377.5306   -1212.3486   -1377.5306    339.67979    10759.049            0            0    -12476.26   -8.5641449    2627.5072    13.072241    16.397005    14.551079    3118.9599 
  415000    307.90094   -1384.2451   -1208.9464   -1384.2451    303.89176    10787.947            0            0   -12476.083   -8.3336726    -755.1839    13.319317    16.160227     14.89114    3205.2165 
  415500    339.05033   -1393.9604   -1200.9272   -1393.9604    334.19741    10748.607            0            0   -12476.764    -8.365908    1252.5529    13.288153    16.290842    14.749339    3192.8662 
  416000    270.91773   -1368.7724   -1214.5296   -1368.7724    345.89765    10762.409            0            0   -12477.079   -8.6492225    3042.7973    13.155713    16.127155    14.556085    3088.2805 
  416500     331.2788   -1394.9916   -1206.3831   -1394.9916    306.45729    10775.214            0            0   -12476.663   -8.4004648   -768.59766    13.358552    15.953135    14.920558    3179.7318 
  417000     298.8592   -1375.9213   -1205.7704   -1375.9213    312.76492    10787.327            0            0   -12476.013   -8.4272932    561.00494    13.109572    16.715014    14.464734     3169.609 
  417500    293.72346   -1386.9552   -1219.7282   -1386.9552    325.96144    10764.446            0            0   -12477.363   -8.5459088    1191.8446    13.151351    15.724075    15.114718    3125.6155 
  418000    331.89175   -1373.6511   -1184.6936   -1373.6511    267.35084    10834.943            0            0   -12475.945   -8.2677033   -2662.9758    13.313512    16.592597    14.625204    3230.7914 
  418500    296.57138   -1389.5795   -1220.7311   -1389.5795    306.18273    10780.489            0            0   -12476.251   -8.3353396   -841.56633    13.450718    15.988251    14.901298    3204.5755 
  419000    306.40229   -1377.3884   -1202.9429   -1377.3884    312.07887    10787.138            0            0   -12476.605   -8.5087987    423.09555    13.324158    16.286482    14.466335    3139.2475 
  419500    310.46306   -1397.0101   -1220.2527   -1397.0101    280.42001    10799.449            0            0    -12476.88   -8.3114027   -2599.5412    13.141081    16.174902    15.119825    3213.8047 
  420000     318.2714   -1395.9563   -1214.7534   -1395.9563    282.98714    10797.771            0            0   -12476.715    -8.276887   -2253.4434    13.314138    16.333706    14.839833    3227.2067 
  420500    309.34014   -1364.7947   -1188.6766   -1364.7947    304.49516    10807.087            0            0   -12476.377    -8.442789    162.88587    13.386545    16.084944    14.693316    3163.7916 
  421000    301.14667   -1385.1256   -1213.6724   -1385.1256    265.95931    10825.645            0            0    -12476.73   -8.2454286   -3335.5827    13.355863    16.389886    14.799011    3239.5193 
  421500    290.36348    -1391.273    -1225.959    -1391.273    344.90412    10740.819            0            0   -12476.996   -8.5051177    2337.9621    13.193144    16.141609    14.747498    3140.6061 
  422000     308.2701   -1373.6787   -1198.1698   -1373.6787    291.59904    10809.865            0            0   -12475.143    -8.373642   -1125.0938    13.394735    16.020009    14.865603    3189.9172 
  422500    232.93084   -1367.5786    -1234.963   -1367.5786    303.24086    10805.704            0            0   -12476.524   -8.3297368   -231.54164    13.300801    16.735862    14.405775    3206.7309 
  423000    294.44714   -1376.9981   -1209.3591   -1376.9981    305.34026    10794.225            0            0   -12476.563   -8.4708298   -661.65012    13.279359    15.792225    15.036523    3153.3185 
  423500    333.08713   -1386.1775   -1196.5394   -1386.1775    289.12923    10801.315            0            0   -12476.622    -8.388307   -1498.3197    13.228279    16.543243    14.551089    3184.3404 
  424000    277.38946   -1396.8103   -1238.8828   -1396.8103    298.24557    10781.235            0            0   -12476.291   -8.2937083   -1783.1195    13.384553    15.981496    15.056491    3220.6612 
  424500    291.68806   -1387.1673   -1221.0991   -1387.1673    328.27676    10761.834            0            0   -12477.279   -8.4943014    1255.6962    13.300651     16.28754    14.515693    3144.6052 
  425000    281.44556   -1370.6985   -1210.4618   -1370.6985    319.63922    10786.495            0            0   -12476.833   -8.3653783    741.18096     13.33028    16.196177      14.7896    3193.0683 
  425500    286.47944   -1388.2404   -1225.1377   -1388.2404    299.77804     10788.65            0            0   -12476.669   -8.2756558   -1251.6873    13.356966    16.216978    14.900938    3227.6868 
  426000    299.39684   -1358.0017   -1187.5446   -1358.0017    310.34494    10807.662            0            0   -12476.008   -8.5006353    1390.8634    13.072667    16.574394    14.502423    3142.2622 
  426500    304.21153   -1358.7777   -1185.5795   -1358.7777    308.30801    10808.626            0            0   -12475.712    -8.372913    82.064726    13.377684    15.949797    14.951375    3190.1949 
  427000    302.87255   -1397.9226   -1225.4867   -1397.9226     313.2889    10765.228            0            0   -12476.439   -8.3812868   -335.43876    13.343592    16.493412    14.481044    3187.0076 
  427500    311.25772   -1402.1805   -1224.9707   -1402.1805    342.10201    10732.866            0            0   -12477.149   -8.4602763    1783.3041    13.262904    15.725428    15.137988    3157.2521 
  428000    292.70184   -1374.8333    -1208.188   -1374.8333    309.21005    10791.952            0            0   -12475.995   -8.5211801      552.285    13.072319    16.697013    14.361594    3134.6861 
  428500    298.94989     -1374.34   -1204.1375     -1374.34    288.81802    10813.859            0            0   -12477.017   -8.3597866   -1566.8757    13.371628    15.949716    14.981709    3195.2041 
  429000    296.45415   -1360.5098   -1191.7281   -1360.5098    275.94095    10839.712            0            0   -12476.163   -8.2380162   -2203.0792    13.458184    16.381242    14.707466    3242.4341 
  429500     280.5359   -1378.5509   -1218.8321   -1378.5509    331.46378     10765.02            0            0   -12475.035   -8.4851324    1384.1233    13.249174     16.02309    14.828598    3148.0033 
  430000    344.24463   -1387.5111   -1191.5207   -1387.5111    289.57487    10798.204            0            0    -12475.29   -8.3383428   -1388.1357    13.123012     16.59917    14.705986    3203.4213 
  430500    319.70757   -1400.3972   -1218.3766   -1400.3972    345.61634    10731.353            0            0   -12477.366   -8.6233387    2373.9834    13.193409    15.892645     14.77288    3097.5502 
  431000    298.21639   -1377.2375   -1207.4526   -1377.2375    318.74391    10780.194            0            0   -12476.175   -8.3898694    490.56761    13.385287    16.193136    14.688584    3183.7474 
  431500    300.99106   -1377.6665   -1206.3018   -1377.6665    276.80903    10822.352            0            0   -12476.827   -8.2617551   -2374.1825    13.366116    16.369446    14.776864    3233.1175 
  432000    322.41627   -1390.9139   -1207.3511   -1390.9139    322.31351    10764.268            0            0   -12477.496   -8.4579216    522.93563    13.191894    16.081295    14.886821    3158.1311 
  432500    291.47222   -1382.4171   -1216.4718   -1382.4171    301.18587      10792.3            0            0   -12475.903    -8.345389   -722.88327    13.244105     16.54409    14.607696    3200.7166 
  433000    323.74678   -1386.8146   -1202.4943   -1386.8146      322.316    10767.145            0            0   -12476.275   -8.3697699    238.26532    13.473396    15.840765    14.952956     3191.393 
  433500    310.85403     -1353.76   -1176.7801     -1353.76    292.95314    10829.495            0            0   -12476.208   -8.4663907   -20.517327    13.260769    16.608488    14.325068    3154.9719 
  434000    314.69408   -1374.4563   -1195.2901   -1374.4563    286.85765    10815.726            0            0    -12477.04   -8.3563153   -1513.7158    13.082592    15.967699    15.301812    3196.5315 
  434500      275.453   -1385.8809   -1229.0559   -1385.8809    307.57067    10783.327            0            0   -12476.778   -8.4270644    -323.5137    13.262228    16.260073    14.698686    3169.6951 
  435000    301.94703   -1372.9561   -1201.0472   -1372.9561     307.3152    10796.843            0            0   -12477.115    -8.495066    213.20884    13.383714     16.06476    14.624336    3144.3222 
  435500    337.73846    -1394.127   -1201.8408    -1394.127    314.81533    10767.201            0            0   -12476.144   -8.4174262    14.960301    13.202242    16.026471    14.997846    3173.3245 
  436000    308.14749   -1371.4933   -1196.0542   -1371.4933    317.92038    10787.739            0            0   -12477.153   -8.4538081    1057.3147    13.168816    16.467527    14.570226    3159.6677 
  436500    308.28195   -1354.4439   -1178.9283   -1354.4439    320.63001    10801.254            0            0   -12476.328   -8.4454754    1316.7133    13.351296    15.897657    14.900923    3162.7852 
  437000    285.55697   -1384.6927   -1222.1152   -1384.6927    305.34844    10785.832            0            0   -12475.874   -8.2959606   -670.23502    13.361415    16.563265    14.548852    3219.7869 
  437500    300.56128   -1385.8839   -1214.7639   -1385.8839    307.18766     10783.08            0            0   -12476.152   -8.4398225   -389.25291    13.318218    15.893663    14.951693    3164.9036 
  438000    298.32065   -1375.2459   -1205.4016   -1375.2459    312.75535    10787.817            0            0   -12475.818    -8.390521    566.94055    13.102814    16.528211    14.699902    3183.5001 
  438500    278.38344   -1397.2477   -1238.7543   -1397.2477    325.20418    10754.366            0            0   -12476.818   -8.3531879    358.24116    13.355665    16.180175    14.797652    3197.7282 
  439000    291.00046   -1393.6168   -1227.9401   -1393.6168    332.22241      10751.4            0            0   -12477.239   -8.4568547    981.09024     13.31639    16.062335    14.766914    3158.5295 
  439500    304.88414   -1386.3103   -1212.7292   -1386.3103    288.68459    10800.091            0            0   -12475.086   -8.3468627   -1500.0673    13.207184    16.584592    14.610178    3200.1514 
  440000    316.35179   -1373.5253   -1193.4152   -1373.5253    322.03419    10779.587            0            0   -12475.147   -8.4633619    1120.9751    13.230294    15.745996    15.149951     3156.101 
  440500    297.36515   -1372.3264   -1203.0261   -1372.3264     299.2904    10804.587            0            0   -12476.203   -8.2818225   -761.17016    13.335218    16.502316     14.65625    3225.2834 
  441000    328.54094   -1397.0373   -1209.9875   -1397.0373    318.84796    10760.425            0            0    -12476.31   -8.3624198    315.63441    13.301503    16.053461    14.958651     3194.198 
  441500    301.38367   -1368.6044   -1197.0162   -1368.6044    325.27487    10781.673            0            0   -12475.552   -8.4275701     1358.747    13.220827    16.287989     14.71856    3169.5049 
  442000    306.41869   -1389.6285   -1215.1737   -1389.6285    311.13693    10776.271            0            0   -12477.036   -8.3561813   -175.93722    13.321509    16.192298    14.819175    3196.5827 
  442500    289.07709   -1365.6022   -1201.0206   -1365.6022     316.1201    10794.268            0            0    -12475.99   -8.3386437      493.164    13.417275    15.908297    15.007569    3203.3057 
  443000    306.76924    -1383.242   -1208.5876    -1383.242    318.76417    10774.677            0            0   -12476.683   -8.4582467    683.12483    13.190433    16.520646    14.491968    3158.0096 
  443500    281.05091   -1361.3819   -1201.3699   -1361.3819    315.18455    10798.842            0            0   -12475.409   -8.4161563    732.09518    13.249698    15.858326    15.104859    3173.8033 
  444000    289.23544    -1380.695   -1216.0232    -1380.695    315.87978    10779.831            0            0   -12476.406   -8.3863826    661.44968    13.223134    16.741575    14.387603    3185.0711 
  444500    293.36136   -1385.6133   -1218.5925   -1385.6133    313.83705     10777.59            0            0   -12477.041   -8.4538321   -65.756701    13.409585    15.889119     14.82945    3159.6588 
  445000    307.32727   -1380.4979   -1205.5258   -1380.4979     323.0594    10773.875            0            0   -12477.432   -8.5609869    1471.1076    13.181514    16.054204     14.74402    3120.1105 
  445500    285.18297   -1383.0294   -1220.6648   -1383.0294    321.38158    10772.324            0            0   -12476.735    -8.495516    1042.0303    13.032577    16.397891    14.712475    3144.1557 
  446000    287.64877   -1391.7409   -1227.9724   -1391.7409    292.52892     10793.33            0            0     -12477.6   -8.4489577   -1698.6337    13.267332    15.960746    14.929796    3161.4816 
  446500    319.57456   -1379.4683   -1197.5234   -1379.4683    287.04518    10810.203            0            0   -12476.716   -8.4283953   -1241.7383    13.417997    16.301262    14.489052    3169.1946 
  447000    294.41278   -1375.6277   -1208.0083   -1375.6277    301.08392    10800.387            0            0   -12477.099   -8.4372375   -472.23522    13.330526    15.873277    14.961655    3165.8733 
  447500    309.57615   -1379.2738   -1203.0214   -1379.2738     304.1503     10793.07            0            0   -12476.494   -8.5119755    166.39103    12.973077    16.605112    14.567285    3138.0759 
  448000    276.86256   -1381.0989   -1223.4715   -1381.0989    308.20111     10786.74            0            0    -12476.04   -8.3115171   -488.21426     13.29352    16.158181    14.961703    3213.7604 
  448500    300.71492   -1383.9811   -1212.7737   -1383.9811     311.4059      10781.4            0            0   -12476.787   -8.4439621   -117.99718    13.403623    16.187338    14.579743     3163.352 
  449000    306.29525   -1390.8275    -1216.443   -1390.8275    293.26765    10793.029            0            0   -12477.124   -8.2614553   -1796.8801    13.574607    16.085212     14.80755    3233.2348 
  449500    298.90586   -1378.9086   -1208.7312   -1378.9086    323.05132    10774.526            0            0   -12476.486   -8.4008286    1108.6251    13.076595    16.315786    14.902839    3179.5941 
  450000    287.48955   -1363.3458    -1199.668   -1363.3458    312.17489    10800.821            0            0   -12476.341   -8.4921694    791.66822    13.095001    16.304369    14.732132    3145.3947 
  450500    284.99884   -1381.2404   -1218.9807   -1381.2404    294.17173    10801.308            0            0   -12476.721    -8.396592    -1256.074    13.376136     16.11372     14.75925    3181.1984 
  451000     298.0024   -1406.3538   -1236.6907   -1406.3538    316.00692    10754.431            0            0   -12476.792   -8.5264286   -175.59007    13.314497    16.124315    14.592193    3132.7565 
  451500    304.54461   -1361.6161   -1188.2282   -1361.6161     280.6546    10833.715            0            0   -12475.985   -8.4280473   -1489.5789    13.262943    16.103809    14.838784    3169.3254 
  452000     323.4017   -1377.4329   -1193.3091   -1377.4329    312.65465    10786.361            0            0   -12476.449   -8.4448076    804.10991    12.881406    16.609493    14.783742    3163.0353 
  452500    296.40492   -1375.7254   -1206.9718   -1375.7254    299.04944    10801.927            0            0   -12476.702    -8.345361   -772.78472    13.297018    16.134455    14.919014    3200.7273 
  453000    288.71446   -1387.8294   -1223.4543   -1387.8294    310.09079    10778.714            0            0   -12476.634   -8.5379671    70.392955    13.344487    16.083555    14.576571    3128.5228 
  453500     293.8007   -1382.2252   -1214.9543   -1382.2252    263.01091    10831.751            0            0   -12476.987   -8.1207833   -3691.4407    13.427381    16.402773    14.934383    3289.2424 
  454000    304.53333   -1357.0984    -1183.717   -1357.0984    334.04238    10784.635            0            0   -12475.776   -8.5231044     2554.565    13.141998    16.199067    14.721247    3133.9784 
  454500    282.90105    -1357.206   -1196.1406    -1357.206     293.0591    10824.741            0            0   -12475.006   -8.3179699   -839.62826    13.349851    16.215975    14.833956    3211.2673 
  455000    318.63684   -1382.1382   -1200.7272   -1382.1382    307.70727    10787.175            0            0    -12477.02    -8.416293   -316.29538    13.348622    16.175345    14.698836    3173.7518 
  455500    314.70658   -1386.2094    -1207.036   -1386.2094    339.06913    10751.441            0            0    -12476.72   -8.5630981    2201.3892    13.242285    16.086503    14.643278    3119.3412 
  456000    294.20382   -1374.6429   -1207.1425   -1374.6429    270.68505    10831.559            0            0   -12476.887   -8.2103811   -2745.7247     13.15809    16.287871    15.180054    3253.3477 
  456500    297.20953   -1375.9481   -1206.7364   -1375.9481    320.40983    10780.141            0            0   -12476.499   -8.4277229    839.51364    13.190545    16.312795     14.72965    3169.4474 
  457000    325.28909   -1361.8378   -1176.6395   -1361.8378    325.22437    10789.301            0            0   -12476.364   -8.4512941    1616.3772    13.411002    15.926023    14.797967    3160.6076 
  457500    322.17898   -1398.1595   -1214.7318   -1398.1595    325.82484    10753.311            0            0   -12477.295   -8.3888039    717.12172    13.415902    16.537174    14.352006    3184.1518 
  458000    341.96409   -1381.2095   -1186.5174   -1381.2095    356.01577    10739.413            0            0   -12476.639   -8.5525164    3284.4831    13.120659    15.948785    14.925078    3123.2006 
  458500    273.39535   -1386.9801   -1231.3266   -1386.9801    290.80551    10799.966            0            0   -12477.751   -8.4263618   -1495.7743    13.200105    16.314403     14.71991    3169.9594 
  459000    302.50585   -1368.3562   -1196.1291   -1368.3562    312.88591    10794.738            0            0    -12475.98   -8.2826055    277.35811    13.440926    16.266528    14.750365    3224.9785 
  459500     322.6054   -1361.7631   -1178.0926   -1361.7631    329.36535    10785.653            0            0   -12476.781   -8.4886504    2082.5438     13.39077     16.02482    14.664135    3146.6987 
  460000    292.10563   -1384.8414   -1218.5355   -1384.8414     295.8582    10795.808            0            0   -12476.508    -8.374548   -949.78106    13.212084    16.346411    14.768578    3189.5721 
  460500     315.8313   -1364.0898   -1184.2761   -1364.0898    334.04721    10779.015            0            0   -12477.152   -8.4835223    2567.1859     13.06184    16.149549    14.926323    3148.6008 
  461000    317.10947    -1375.797   -1195.2556    -1375.797    270.06637    10831.219            0            0   -12477.083   -8.2381974   -2681.2809    13.465544    16.481916     14.60932    3242.3628 
  461500    305.26323   -1385.5462   -1211.7492   -1385.5462    297.30377    10792.978            0            0   -12475.828   -8.3843074   -1194.4706    13.599438    15.933944    14.702202    3185.8594 
  462000    288.16198   -1402.0445   -1237.9839   -1402.0445    322.41422    10752.437            0            0   -12476.896   -8.4820021    494.07005    13.274179    16.301393    14.553352    3149.1651 
  462500    339.08752   -1370.2996   -1177.2453   -1370.2996     300.8662    10805.496            0            0   -12476.662   -8.3894632   -25.646223    13.113009    16.119011    15.063257    3183.9015 
  463000    308.79865   -1366.3399   -1190.5301   -1366.3399    332.76876    10777.513            0            0   -12476.621   -8.4515867    2113.9151    13.115754      16.3774    14.713546    3160.4982 
  463500    332.49651   -1376.3409   -1187.0391   -1376.3409    347.39189    10752.834            0            0   -12476.567   -8.5973949    2827.6578    13.410688    15.793594     14.66881    3106.8975 
  464000    282.28949    -1371.313   -1210.5958    -1371.313    311.08079    10793.369            0            0   -12475.763   -8.3083934   -150.32871    13.300927    16.386374    14.750678    3214.9687 
  464500    307.27398   -1376.0972   -1201.1555   -1376.0972    327.32367    10772.628            0            0   -12476.049   -8.4642189    1337.7442    13.099954    16.064028     14.99625    3155.7814 
  465000    307.66572   -1365.9189   -1190.7541   -1365.9189    325.96178    10783.792            0            0   -12475.673   -8.4540966    1679.7125    13.127564    16.449219     14.63178    3159.5599 
  465500    316.21976   -1369.7816   -1189.7467   -1369.7816    331.04822    10775.401            0            0   -12476.231   -8.4144491    1635.9597    13.443891    15.943912    14.809767    3174.4472 
  466000     287.2623   -1380.5618   -1217.0134   -1380.5618    301.92647    10794.489            0            0   -12476.977   -8.3214319    -1072.289    13.388743    16.278906    14.727558    3209.9313 
  466500    312.61924   -1376.5355   -1198.5505   -1376.5355    334.18539    10765.577            0            0   -12476.298   -8.4034201    1955.8883    13.231585    16.230498      14.8011    3178.6135 
  467000    326.03197   -1388.4356   -1202.8143   -1388.4356    296.30999    10792.313            0            0   -12477.058   -8.2455929   -1478.4878    13.354149    16.143017    15.026955    3239.4547 
  467500    294.59472   -1372.9315   -1205.2085   -1372.9315    291.45571        10812            0            0   -12476.388   -8.3868231    -1077.525    13.234652    16.605062    14.492499    3184.9038 
  468000    313.22034   -1382.1025   -1203.7753   -1382.1025    345.80252    10749.216            0            0   -12477.121   -8.5534322    2158.6716    13.385223    15.462843    15.088234    3122.8663 
  468500    352.35662    -1393.235   -1192.6261    -1393.235    288.77447    10794.991            0            0       -12477   -8.2779705   -1767.8016    13.324074    16.610671    14.579603    3226.7842 
  469000    303.57242   -1377.1007   -1204.2664   -1377.1007    320.35007    10779.083            0            0   -12476.534   -8.3758074    612.62698    13.313194    16.085952    14.891487    3189.0925 
  469500    303.95196   -1391.9157   -1218.8653   -1391.9157    333.79061    10750.709            0            0   -12476.415   -8.5382636    1774.9953    13.159257    16.212706     14.66349    3128.4142 
  470000     309.6757   -1372.3954   -1196.0863   -1372.3954    274.63275    10829.328            0            0   -12476.357   -8.2692114    -2435.132    13.227178    16.210491    15.064903    3230.2022 
  470500    301.66155   -1377.3643   -1205.6179   -1377.3643    328.24506    10771.773            0            0   -12477.383   -8.4785318    1502.8385    13.307324    16.012415    14.785145     3150.454 
  471000    298.56507   -1353.0901   -1183.1067   -1353.0901    323.51957    10797.672            0            0   -12474.282   -8.5363688    2161.9326    13.271805    16.276881    14.485032    3129.1086 
  471500    295.76225   -1399.6204   -1231.2327   -1399.6204    282.76832    10794.776            0            0   -12477.164   -8.2753621   -2603.2015    13.324648    16.012416    15.128441    3227.8013 
  472000    290.26803   -1383.5635   -1218.3039   -1383.5635    314.32391    10778.677            0            0   -12476.565   -8.4217074    339.81196    13.116547    16.646884    14.525837    3171.7113 
  472500    302.04739   -1367.5297   -1195.5636   -1367.5297    316.87043     10792.13            0            0   -12476.531    -8.383286    365.19834     13.31464    15.823171    15.123648    3186.2476 
  473000    268.02965   -1394.7484   -1242.1498   -1394.7484    309.66914    10772.241            0            0   -12476.659   -8.4054478   -450.02585    13.331022    16.390493    14.543786    3177.8467 
  473500    304.15637   -1378.6806   -1205.5139   -1378.6806    297.73426    10800.388            0            0   -12476.803   -8.3742643   -969.08672    13.355556    16.048588    14.881555    3189.6802 
  474000    291.09317   -1371.3878   -1205.6584   -1371.3878    327.60971    10778.144            0            0   -12477.141   -8.4679098     1627.948    13.082312    16.416004      14.6881    3154.4059 
  474500    286.33514   -1377.1135    -1214.093   -1377.1135     299.6259    10800.185            0            0   -12476.925   -8.4062976   -712.53415    13.150647    16.251442    14.867914    3177.5255 
  475000    307.60736   -1389.2114   -1214.0798   -1389.2114    305.81283    10781.607            0            0   -12476.631   -8.3626172   -734.84888    13.346714    16.081346    14.881779    3194.1226 
  475500    310.63101   -1377.2464   -1200.3934   -1377.2464    300.14177    10799.411            0            0     -12476.8   -8.3974353   -321.81875    13.342976    16.547627    14.406508    3180.8789 
  476000    279.19368   -1399.9029   -1240.9482   -1399.9029    344.26992    10732.902            0            0   -12477.075   -8.4302911    1474.6244    13.291003    15.808561    15.079993    3168.4819 
  476500    302.58293     -1365.22    -1192.949     -1365.22    293.47714    10816.603            0            0     -12475.3   -8.4077174   -782.22937    13.212619    16.417988    14.645589    3176.9889 
  477000    288.00876   -1378.1015   -1214.1281   -1378.1015    305.23418    10793.401            0            0   -12476.736   -8.4304127   -233.94776    13.347542    16.007151    14.829607    3168.4362 
  477500    268.36649   -1367.4115   -1214.6212   -1367.4115    286.83176     10822.52            0            0   -12476.763   -8.3764336   -1306.0009    13.345298    16.424891    14.548019    3188.8541 
  478000    304.23101   -1377.7087   -1204.4994   -1377.7087    340.05249    10758.507            0            0   -12476.268   -8.6195134    2313.3241    13.148292     15.70824    15.004246    3098.9249 
  478500     301.5036   -1378.7903   -1207.1339   -1378.7903    274.57084    10823.573            0            0   -12476.934   -8.3784916   -2288.4001    13.219506    16.435638    14.673245    3188.0708 
  479000    303.47188   -1379.5175   -1206.7404   -1379.5175      287.092    10810.494            0            0   -12477.103   -8.3396461    -1713.196    13.404389    16.202303    14.747637    3202.9207 
  479500    287.05345   -1377.7559   -1214.3264   -1377.7559    292.27446    10806.566            0            0   -12476.596   -8.3471112   -1624.7573     13.39623    16.231331    14.717054    3200.0562 
  480000    259.88262   -1367.9287   -1219.9685   -1367.9287    239.21681    10867.593            0            0   -12474.738   -8.2043595   -4866.3525    13.324596    16.550512    14.763307    3255.7355 
  480500    296.50012   -1387.1779   -1218.3701   -1387.1779    355.55994    10733.833            0            0   -12476.571   -8.5892573    3230.4232    13.074286    15.933417    14.928332     3109.841 
  481000    336.36135   -1377.8657   -1186.3635   -1377.8657    313.09242    10785.004            0            0   -12475.962   -8.4514682    546.49848    13.275098    16.370608    14.543171    3160.5425 
  481500    321.69201    -1368.367   -1185.2166    -1368.367    306.56397    10801.976            0            0   -12476.907   -8.3691838  -0.70518813    13.472319    15.892072    14.906917    3191.6165 
  482000    280.05825   -1388.5747   -1229.1278   -1388.5747    352.20897    10736.211            0            0   -12476.994   -8.6761408    3214.2566    13.050559    16.379995     14.40205    3078.6989 
  482500    282.84842   -1362.1213   -1201.0859   -1362.1213    279.54816     10835.19            0            0    -12476.86   -8.2989733   -1956.7816    13.275104    16.089993    15.068695     3218.618 
  483000    282.32832   -1375.0516   -1214.3123   -1375.0516    274.77831    10826.564            0            0   -12476.394   -8.2346382   -2463.5043    13.318701    16.551657    14.714514    3243.7642 
  483500    314.60136   -1381.2826   -1202.1691   -1381.2826    371.83135    10723.829            0            0   -12476.943   -8.6599268    4247.5568    13.363714    15.628006    14.768923    3084.4631 
  484000     275.6896   -1371.2733   -1214.3136   -1371.2733    315.24185    10789.494            0            0   -12476.009   -8.4149662    652.79463    13.288174    16.340182    14.619053    3174.2522 
  484500     332.7759   -1373.7153   -1184.2544   -1373.7153    313.79553    10788.718            0            0   -12476.229   -8.4271457    709.24845    13.185082     16.24456    14.798663    3169.6645 
  485000    324.06409   -1362.2651   -1177.7641   -1362.2651    283.65909    10830.206            0            0    -12476.13   -8.2806763   -1582.6613    13.395174    16.055049    14.999196    3225.7299 
  485500    264.63888   -1378.3983   -1227.7302   -1378.3983    321.32231    10777.526            0            0   -12477.246   -8.5642997     1134.158    13.155304    16.419375    14.439243    3118.9036 
  486000    290.90093   -1387.5929   -1221.9729   -1387.5929    275.62473    10813.736            0            0   -12476.953   -8.2702985   -2802.2224    13.368324    16.104319    15.002142    3229.7776 
  486500    274.75761   -1376.1596   -1219.7305   -1376.1596    313.31796    10787.477            0            0   -12476.954   -8.5192405    604.55915    13.134121    16.276408    14.666732    3135.3998 
  487000    286.17922   -1390.2644   -1227.3326   -1390.2644    279.47597    10806.994            0            0   -12476.735    -8.192065    -2956.817    13.416838     16.23967    14.964873    3260.6217 
  487500    283.97225   -1395.4407   -1233.7654   -1395.4407    348.53967    10733.433            0            0   -12477.413   -8.5035584    2001.2153    13.463975     16.06125    14.525813     3141.182 
  488000    285.25139   -1372.8016   -1210.3981   -1372.8016    280.84013    10821.234            0            0   -12474.876   -8.3319825   -1888.3281    13.263047    16.346183    14.787195    3205.8666 
  488500    313.07911   -1350.5276   -1172.2808   -1350.5276    290.39301    10835.139            0            0   -12476.059   -8.3801041   -451.87204    13.219771    16.144562     14.93462    3187.4574 
  489000    315.59691   -1385.0987   -1205.4184   -1385.0987    332.24233    10759.531            0            0   -12476.872   -8.4576831    1677.2896    13.190072     16.43876    14.565526    3158.2201 
  489500    303.30452   -1360.5476   -1187.8658   -1360.5476    304.75241    10811.199            0            0   -12476.499   -8.3564131    -277.2979    13.469145     15.77426    15.044746     3196.494 
  490000    306.41759   -1366.1823   -1191.7282   -1366.1823    295.83829    10815.108            0            0   -12477.129   -8.3458491   -430.71512    13.363994    16.720234    14.323352    3200.5401 
  490500    271.46443    -1379.337   -1224.7828    -1379.337    298.90991    10797.609            0            0   -12475.856   -8.4187534   -1066.7885     13.27777    15.968915    14.963923    3172.8242 
  491000    324.17546   -1359.5939   -1175.0295   -1359.5939    306.39368    10809.769            0            0   -12475.756   -8.4048911    328.01258    13.241607    16.326186    14.700641    3178.0572 
  491500    289.91402   -1384.2354   -1219.1773   -1384.2354    313.14711    10779.997            0            0    -12477.38    -8.471385    42.014134    13.272777    16.078745     14.77493    3153.1119 
  492000    315.80384   -1391.3478   -1211.5497   -1391.3478    334.27285    10751.172            0            0   -12476.793   -8.4703046    1449.0434    13.472573    16.139668    14.502726    3153.5141 
  492500    306.46881   -1369.0563   -1194.5729   -1369.0563    293.03168    10813.596            0            0   -12475.684   -8.3348143   -1090.1104    13.336449    16.279727    14.760822    3204.7774 
  493000    293.54102   -1369.1723   -1202.0493   -1369.1723    312.90921    10794.426            0            0   -12476.507   -8.3963942    624.35149    13.112784     16.20209    14.973903    3181.2733 
  493500    253.54455   -1357.7931   -1213.4414   -1357.7931    284.42904    10833.501            0            0   -12475.723   -8.2944135   -1381.7345    13.288292    16.408994    14.769201    3220.3874 
  494000    305.80596   -1391.3058   -1217.1999   -1391.3058     334.6264    10751.127            0            0   -12477.059   -8.4344556    1089.5252    13.579979    15.691984    14.861402    3166.9174 
  494500    299.84912   -1377.3907   -1206.6762   -1377.3907    313.25655        10786            0            0   -12476.647   -8.4183141    521.85619    13.176657    16.603003    14.503632    3172.9898 
  495000    303.76229   -1377.7169   -1204.7745   -1377.7169    316.48385    10781.548            0            0   -12475.748   -8.4034118    554.28654    13.134048    16.149154     14.98614    3178.6167 
  495500    300.45256   -1359.0918   -1188.0337   -1359.0918    311.31909    10806.276            0            0   -12476.687   -8.3828918    646.29107    13.177071    16.316292    14.820388    3186.3974 
  496000    298.95847   -1376.2411   -1206.0337   -1376.2411     316.9725    10783.643            0            0   -12476.857   -8.3610975    112.87895    13.647915    16.039399     14.59406    3194.7032 
  496500    296.91275   -1369.2638    -1200.221   -1369.2638    307.05148    10799.531            0            0   -12475.846   -8.3251985   -217.46379    13.486952    16.144159    14.735673     3208.479 
  497000    252.64128   -1368.7273   -1224.8898   -1368.7273    310.54938    10796.879            0            0   -12476.156   -8.4034643    62.062295    13.109262    16.322101     14.85529    3178.5968 
  497500    297.23914   -1401.9137   -1232.6851   -1401.9137    287.31834    10787.787            0            0   -12477.019    -8.291383   -2175.5145    13.219291    16.410884    14.850007    3221.5645 
  498000    321.55041   -1377.4165   -1194.3467   -1377.4165    355.28087    10743.554            0            0   -12476.252   -8.4941532    2995.5026    13.504153    15.750399    14.784777    3144.6601 
  498500    292.19652   -1370.7879   -1204.4303   -1370.7879    297.56962    10807.675            0            0   -12476.032   -8.3930146   -797.29307      13.4443    16.303053    14.520069    3182.5543 
  499000    301.04103    -1376.073   -1204.6799    -1376.073     331.5676    10769.563            0            0   -12477.204   -8.5008815    1802.8535    13.236522     15.92931    14.902496    3142.1712 
  499500    307.68234    -1393.717   -1218.5428    -1393.717    299.17172    10783.962            0            0    -12476.85   -8.3326501   -1205.9787    13.194977    16.536724     14.69104    3205.6098 
  500000     276.2204   -1368.8565   -1211.5946   -1368.8565    345.73483    10762.168            0            0    -12476.76   -8.6149313    2989.7327    13.197213    15.765673    14.902092    3100.5732 
Loop time of 335.286 on 4 procs for 500000 steps with 288 atoms

Performance: 257.691 ns/day, 0.093 hours/ns, 1491.265 timesteps/s
95.3% CPU use with 4 MPI tasks x no OpenMP threads

MPI task timing breakdown:
Section |  min time  |  avg time  |  max time  |%varavg| %total
---------------------------------------------------------------
Pair    | 190.67     | 197.14     | 203.12     |  34.4 | 58.80
Bond    | 0.070742   | 0.072291   | 0.075715   |   0.8 |  0.02
Kspace  | 61.838     | 67.901     | 74.531     |  60.1 | 20.25
Neigh   | 4.7504     | 4.7556     | 4.7622     |   0.2 |  1.42
Comm    | 21.904     | 22.082     | 22.2       |   2.4 |  6.59
Output  | 0.66084    | 0.66209    | 0.66519    |   0.2 |  0.20
Modify  | 39.684     | 40.127     | 40.402     |   4.3 | 11.97
Other   |            | 2.545      |            |       |  0.76

Nlocal:    72 ave 73 max 71 min
Histogram: 1 0 0 0 0 2 0 0 0 1
Nghost:    2895 ave 2898 max 2892 min
Histogram: 1 1 0 0 0 0 0 0 1 1
Neighs:    17417.5 ave 17548 max 17325 min
Histogram: 2 0 0 0 0 1 0 0 0 1

Total # of neighbors = 69670
Ave neighs/atom = 241.91
Ave special neighs/atom = 2
Neighbor list builds = 13696
Dangerous builds = 73

unfix		1
unfix		2
unfix		3

write_data	data.final
PPPM initialization ...
  extracting TIP4P info from pair style
  using 12-bit tables for long-range coulomb (../kspace.cpp:323)
  G vector (1/distance) = 0.332967
  grid = 10 12 12
  stencil order = 5
  estimated absolute RMS force accuracy = 0.0226762
  estimated relative force accuracy = 6.82888e-05
  using double precision KISS FFT
  3d grid and FFT values/proc = 2873 360
Total wall time: 0:05:35
