LAMMPS (19 Sep 2019)
OMP_NUM_THREADS environment is not set. Defaulting to 1 thread. (src/comm.cpp:93)
  using 1 OpenMP thread(s) per MPI task
echo both

include		in.temp
variable	temperature equal 270.0
variable	temperature2 equal 400.0

variable	tempDamp equal 100.0
include		in.pressure
variable        pressure equal 1.
variable        pressureDamp equal 1000.0 # This is 1 ps
include		in.seed
variable	seed equal 745821
units		real
atom_style	full
include		in.box
read_data       ice.data
  orthogonal box = (0 0 0) to (17.7165 24.2429 22.1364)
  2 by 2 by 2 MPI processor grid
  reading atoms ...
  864 atoms
  reading velocities ...
  864 velocities
  scanning bonds ...
  2 = max bonds/atom
  scanning angles ...
  1 = max angles/atom
  reading bonds ...
  576 bonds
  reading angles ...
  288 angles
  2 = max # of 1-2 neighbors
  1 = max # of 1-3 neighbors
  1 = max # of 1-4 neighbors
  2 = max # of special neighbors
  special bonds CPU = 0.000757588 secs
  read_data CPU = 0.00813577 secs
include 	in.setup
variable	out_freq equal 500
variable	out_freq2 equal 500

timestep	2.0

neigh_modify    delay 10 every 1

include		in.tip4p
# This is TIP4P/Ice

# create groups ###
group ox type 2
288 atoms in group ox
group hy type 1
576 atoms in group hy

# set charges - beside manually ###
set group ox charge -1.1794
  288 settings made for charge
set group hy charge 0.5897
  576 settings made for charge

# ### TIP3P Potential Parameters ###
pair_style lj/cut/tip4p/long 2 1 1 1 0.1577 8.5
pair_coeff 1 1*2 0.000 0.000
pair_coeff 2 2 0.21084 3.1668
bond_style  harmonic
bond_coeff  1 450 0.9572
angle_style harmonic
angle_coeff 1 55 104.52
kspace_style pppm/tip4p 1.0e-4 #final npt relaxation
pair_modify tail yes

thermo          ${out_freq}
thermo          500
thermo_style 	custom step temp pe etotal epair evdwl ecoul ebond eangle elong etail press lx ly lz vol

restart 	${out_freq} restart.lmp restart2.lmp
restart 	500 restart.lmp restart2.lmp


fix 		1 all shake 1e-6 200 0 b 1 a 1
  0 = # of size 2 clusters
  0 = # of size 3 clusters
  0 = # of size 4 clusters
  288 = # of frozen angles
  find clusters CPU = 0.000969145 secs
fix             2 all nph iso ${pressure} ${pressure} ${pressureDamp}
fix             2 all nph iso 1 ${pressure} ${pressureDamp}
fix             2 all nph iso 1 1 ${pressureDamp}
fix             2 all nph iso 1 1 1000
fix             3 all temp/csvr ${temperature2} ${temperature2} ${tempDamp} ${seed}
fix             3 all temp/csvr 400 ${temperature2} ${tempDamp} ${seed}
fix             3 all temp/csvr 400 400 ${tempDamp} ${seed}
fix             3 all temp/csvr 400 400 100 ${seed}
fix             3 all temp/csvr 400 400 100 745821
velocity 	all create ${temperature2} ${seed} dist gaussian
velocity 	all create 400 ${seed} dist gaussian
velocity 	all create 400 745821 dist gaussian

run             200000
PPPM initialization ...
  extracting TIP4P info from pair style
  using 12-bit tables for long-range coulomb (src/kspace.cpp:323)
  G vector (1/distance) = 0.331927
  grid = 15 18 16
  stencil order = 5
  estimated absolute RMS force accuracy = 0.0235776
  estimated relative force accuracy = 7.10033e-05
  using double precision FFTW3
  3d grid and FFT values/proc = 3360 576
Neighbor list info ...
  update every 1 steps, delay 10 steps, check yes
  max neighbors/atom: 2000, page size: 100000
  master list distance cutoff = 10.8154
  ghost atom cutoff = 10.8154
  binsize = 5.4077, bins = 4 5 5
  1 neighbor lists, perpetual/occasional/extra = 1 0 0
  (1) pair lj/cut/tip4p/long, perpetual
      attributes: half, newton on
      pair build: half/bin/newton
      stencil: half/bin/3d/newton
      bin: standard
Per MPI rank memory allocation (min/avg/max) = 8.091 | 8.14 | 8.467 Mbytes
Step Temp PotEng TotEng E_pair E_vdwl E_coul E_bond E_angle E_long E_tail Press Lx Ly Lz Volume 
       0          400   -4196.7649   -3511.1785   -4196.7649    1020.1868    32139.219            0            0   -37356.171   -25.285247    2301.8369    17.716453    24.242907    22.136433    9507.5607 
     500    396.06131   -3858.9804   -3180.1448   -3858.9804    798.54802    32692.259            0            0   -37349.787   -24.820003    -114.5391    17.826465    24.393446    22.273891    9685.7775 
    1000    409.10654   -3821.9013   -3120.7067   -3821.9013    911.61359    32614.248            0            0   -37347.763   -25.160953    2915.4152    17.745578    24.282761    22.172824    9554.5277 
    1500    408.26605   -3832.3349   -3132.5809   -3832.3349    787.91989    32730.511            0            0   -37350.766   -24.830508   -72.609318    17.823951    24.390005     22.27075    9681.6795 
    2000    381.22757   -3811.3558   -3157.9448   -3811.3558    820.39045     32714.81            0            0   -37346.556   -24.868037    724.86198     17.81498     24.37773    22.259541    9667.0688 
    2500    413.55819   -3817.8952   -3109.0707   -3817.8952    781.98664    32749.187            0            0   -37349.069   -24.881415   -27.244737    17.811787     24.37336    22.255551    9661.8712 
    3000    401.58992    -3790.775   -3102.4636    -3790.775    737.15384    32817.885            0            0   -37345.814   -24.560083   -1011.3519    17.889131    24.479196    22.352191    9788.2823 
    3500    389.03176   -3835.7917   -3169.0046   -3835.7917    805.28137    32707.441            0            0   -37348.514   -24.530271    143.56238    17.896375    24.489109    22.361242     9800.178 
    4000    410.64791   -3772.4773   -3068.6409   -3772.4773    720.34909    32856.219            0            0   -37349.045   -24.551003   -1082.1798    17.891336    24.482213    22.354946    9791.9023 
    4500    392.38757   -3773.5108    -3100.972   -3773.5108     737.2165    32833.886            0            0   -37344.613   -24.354264   -981.42544    17.939383    24.547961    22.414981    9871.0032 
    5000    386.75567   -3805.6985   -3142.8125   -3805.6985    808.73312    32732.491            0            0   -37346.923    -25.02688     722.0327     17.77721    24.326046    22.212348    9605.7127 
    5500    403.75814   -3837.7407   -3145.7131   -3837.7407    804.46208    32705.986            0            0   -37348.189    -25.25832    590.89745    17.722746    24.251519    22.144296    9517.6964 
    6000    393.21575   -3718.4956   -3044.5372   -3718.4956    751.58258    32876.867            0            0   -37346.945   -24.842246    201.89368    17.821143    24.386163    22.267241     9677.105 
    6500    395.58138   -3679.7773   -3001.7643   -3679.7773    743.34649    32923.547            0            0   -37346.671    -24.88261    616.71595    17.811502     24.37297    22.255194     9661.407 
    7000    392.90502   -3522.9195   -2849.4937   -3522.9195    638.58937     33176.07            0            0   -37337.579   -25.278716   -178.00178    17.717979    24.244994    22.138339    9510.0171 
    7500    385.05805   -3409.4512   -2749.4749   -3409.4512    586.12757    33333.783            0            0   -37329.362   -25.434151    228.58214    17.681812    24.195504    22.093149    9451.8989 
    8000    401.43634   -3381.2034   -2693.1552   -3381.2034    576.23992    33383.429            0            0   -37340.873   -26.555313    1357.1313    17.429384    23.850086    21.777744    9052.8407 
    8500    431.98153   -3349.8067   -2609.4051   -3349.8067     460.2362    33528.078            0            0   -37338.121   -26.118959   -1509.4746    17.525909     23.98217    21.898351    9204.0814 
    9000    419.65937   -3324.1834   -2604.9016   -3324.1834    486.53376    33526.187            0            0   -37336.904   -26.376789   -42.420259    17.468618    23.903773    21.826766    9114.1124 
    9500    401.89353   -3272.7405   -2583.9088   -3272.7405    452.53073    33614.468            0            0   -37339.739   -25.399908   -1046.8493    17.689754    24.206372    22.103073    9464.6414 
   10000    386.71196   -3243.8082   -2580.9971   -3243.8082    448.99734    33642.577            0            0   -37335.382   -26.830647    15.910162    17.369559    23.768223    21.702994    8959.9412 
   10500     403.1047   -3225.0978   -2534.1901   -3225.0978    444.28329    33667.963            0            0   -37337.344   -26.447572   -269.43341     17.45302    23.882429    21.807277    9089.7201 
   11000    427.67899    -3237.308   -2504.2809    -3237.308     431.9668    33663.782            0            0   -37333.057   -25.501424   -1301.7727     17.66625    24.174209    22.073705    9426.9646 
   11500    389.32485   -3286.8794     -2619.59   -3286.8794    492.94317    33562.071            0            0   -37341.893   -27.180992    653.72495    17.294609    23.665662    21.609345    8844.4536 
   12000     384.9403    -3359.544   -2699.7695    -3359.544    513.47985    33463.078            0            0   -37336.101   -27.606705    829.59803     17.20525    23.543385    21.497692    8708.0664 
   12500     415.5493   -3314.0333    -2601.796   -3314.0333    501.46604    33517.821            0            0    -37333.32   -27.152761    891.01009    17.300601    23.673861    21.616832    8853.6492 
   13000    402.41176   -3366.9554   -2677.2354   -3366.9554    437.07985    33537.716            0            0   -37341.752   -27.204762   -1254.4813     17.28957    23.658768     21.60305    8836.7259 
   13500    384.70846   -3289.8965   -2630.5194   -3289.8965    431.51243     33617.52            0            0   -37338.929   -26.674249   -1230.4584    17.403441    23.814586    21.745329    9012.4759 
   14000    376.94286   -3226.2133   -2580.1462   -3226.2133    434.78023    33678.117            0            0    -37339.11   -26.316705   -607.51603    17.481902     23.92195    21.843364    9134.9209 
   14500    388.47893   -3224.2557   -2558.4162   -3224.2557    445.35455    33664.595            0            0   -37334.205   -26.046018   -746.05029    17.542254    24.004536    21.918774     9229.857 
   15000    409.09264    -3295.887   -2594.7162    -3295.887    487.45176    33546.168            0            0   -37329.507   -26.546994    92.559871    17.431204    23.852577    21.780019    9055.6778 
   15500    370.90138   -3326.6333    -2690.921   -3326.6333    447.62117    33563.446            0            0   -37337.701   -26.490592   -1226.9177    17.443567    23.869493    21.795465    9074.9583 
   16000    396.11953   -3299.8845   -2620.9492   -3299.8845    455.61298    33584.991            0            0   -37340.489   -26.344411     -940.287    17.475771    23.913562    21.835705    9125.3141 
   16500    407.64228   -3256.7508   -2558.0659   -3256.7508    478.11142    33603.076            0            0   -37337.938   -26.757822    788.68563    17.385303    23.789766    21.722666    8984.3269 
   17000    404.31104   -3238.0603    -2545.085   -3238.0603    467.93126    33631.861            0            0   -37337.852   -26.226337    147.92197    17.501958    23.949395    21.868424    9166.3972 
   17500    386.77144   -3305.7717   -2642.8587   -3305.7717    483.86741     33550.17            0            0    -37339.81   -27.095822    391.73521    17.312711    23.690432    21.631963    8872.2544 
   18000    401.88038   -3358.3886   -2669.5794   -3358.3886    502.02572    33481.414            0            0   -37341.828   -27.694646    679.01898     17.18702    23.518439    21.474914    8680.4152 
   18500    382.56342   -3337.7707   -2682.0701   -3337.7707    514.54304    33491.191            0            0   -37343.504   -26.598802    61.886839     17.41988    23.837081    21.765869    9038.0393 
   19000    398.81667   -3301.8641    -2618.306   -3301.8641    472.96393    33564.858            0            0   -37339.687   -26.726425   -124.67496    17.392108    23.799078    21.731169    8994.8813 
   19500    384.50805    -3255.166   -2596.1323    -3255.166    504.78901    33575.881            0            0   -37335.836   -26.498933     502.2011    17.441736    23.866989    21.793179    9072.1021 
   20000    400.17047   -3299.8101   -2613.9316   -3299.8101    399.66132    33641.571            0            0   -37341.042   -26.287328   -2200.7237    17.488412    23.930858    21.851498    9145.1296 
   20500    391.39862    -3213.209   -2542.3652    -3213.209    420.25855    33701.521            0            0   -37334.989   -26.167663   -1150.6732    17.515029    23.967282    21.884757    9186.9503 
   21000    384.26597   -3285.6075   -2626.9888   -3285.6075    522.49964    33530.441            0            0   -37338.548   -27.319517    1728.1127    17.265328    23.625595    21.572759    8799.6075 
   21500     406.0483    -3248.403   -2552.4501    -3248.403    486.27752    33601.505            0            0   -37336.186   -26.179813    90.564782    17.512319    23.963573    21.881371    9182.6866 
   22000    392.50675   -3343.9594   -2671.2162   -3343.9594    462.76842    33536.708            0            0   -37343.436   -26.826158   -810.07603    17.370528    23.769549    21.704205    8961.4407 
   22500    384.69053   -3282.8121   -2623.4657   -3282.8121    440.07926    33618.059            0            0   -37340.951   -26.378008   -1041.1016    17.468348    23.903404     21.82643    9113.6912 
   23000    388.60176   -3273.9517   -2607.9016   -3273.9517    523.94418    33541.223            0            0   -37339.119    -26.93934    1721.9932    17.346167    23.736214    21.673766    8923.7904 
   23500    414.05643   -3352.9332   -2643.2546   -3352.9332    460.55718    33524.182            0            0   -37337.672   -27.330545   -719.09378    17.263006    23.622417    21.569858    8796.0568 
   24000     384.9131   -3285.5855   -2625.8576   -3285.5855     500.2117    33549.798            0            0   -37335.595   -26.772403    927.57607    17.382146    23.785446    21.718721    8979.4338 
   24500    393.80231    -3311.706   -2636.7423    -3311.706    479.25834      33546.7            0            0   -37337.665   -26.774468   -105.99758    17.381699    23.784835    21.718163    8978.7413 
   25000    407.00355   -3287.3799   -2589.7897   -3287.3799    487.62091    33563.453            0            0   -37338.453   -26.132576   -234.35697    17.522865    23.978004    21.894547    9199.2854 
   25500    392.30135   -3252.8452   -2580.4541   -3252.8452    419.49546    33662.171            0            0   -37334.511    -26.50415   -1110.8311    17.440592    23.865423    21.791749    9070.3163 
   26000    432.36679   -3339.7395   -2598.6776   -3339.7395    455.09713    33543.374            0            0   -37338.211   -26.390741   -1213.3186    17.465539    23.899559    21.822919    9109.2941 
   26500    405.65421   -3262.9127   -2567.6352   -3262.9127    468.32167    33601.713            0            0   -37332.947   -26.214764     46.01765    17.504533    23.952919    21.871642    9170.4439 
   27000    400.55138   -3320.0626   -2633.5312   -3320.0626    524.35697    33493.855            0            0   -37338.274   -26.997912    1315.1899    17.333614    23.719036    21.658081    8904.4301 
   27500     405.1365   -3315.3463   -2620.9562   -3315.3463    516.86331    33510.163            0            0   -37342.373   -26.458108    567.84786    17.450703    23.879258    21.804382    9086.1004 
   28000    391.78929    -3281.585   -2610.0715    -3281.585     446.5496     33603.19            0            0   -37331.324   -26.050935   -1026.5686    17.541151    24.003026    21.917395     9228.115 
   28500    417.53504   -3250.1328   -2534.4921   -3250.1328    428.13684    33658.157            0            0   -37336.426   -26.047122   -1086.4543    17.542006    24.004197    21.918464    9229.4657 
   29000    424.86612   -3341.1922   -2612.9862   -3341.1922    552.65339    33440.683            0            0   -37334.529   -25.629301    418.97675    17.636819    24.133937    22.036931    9379.9289 
   29500     406.9725   -3305.6693   -2608.1323   -3305.6693    481.63882    33548.653            0            0   -37335.961   -25.845895     -687.671    17.587414    24.066332      21.9752    9301.3231 
   30000    391.23481   -3219.0005   -2548.4374   -3219.0005    518.13003    33598.745            0            0   -37335.875   -26.242723    1126.1017    17.498314    23.944409    21.863872    9160.6736 
   30500    393.98538   -3306.7871   -2631.5097   -3306.7871    460.88762    33567.241            0            0   -37334.916   -26.057235   -1023.5412    17.539737    24.001091    21.915628    9225.8838 
   31000    385.09656   -3348.3458   -2688.3035   -3348.3458    542.58841    33447.638            0            0   -37338.572   -27.482644    1670.7864      17.2311    23.578758    21.529992    8747.3762 
   31500    393.44268   -3364.0008   -2689.6535   -3364.0008    457.54654    33522.124            0            0   -37343.671   -27.019813   -1271.2473     17.32893    23.712626    21.652228    8897.2128 
   32000    394.17196   -3238.3692   -2562.7719   -3238.3692    524.77831    33567.619            0            0   -37330.767    -26.87993    2003.0176    17.358937    23.753688    21.689722    8943.5138 
   32500    395.76292   -3262.6939   -2584.3698   -3262.6939    466.38354    33609.265            0            0   -37338.342   -26.623166    17.245658    17.414564    23.829807    21.759227    9029.7683 
   33000    416.33246   -3344.9737   -2631.3941   -3344.9737    506.03683    33492.031            0            0   -37343.041   -27.016389    597.66433    17.329661    23.713627    21.653143    8898.3402 
   33500    405.58431      -3216.4   -2521.2423      -3216.4    473.25086    33645.319            0            0    -37334.97   -26.806364    1043.4603    17.374802    23.775398    21.709546    8968.0578 
   34000    411.21347   -3325.1864   -2620.3806   -3325.1864    483.78241    33525.596            0            0   -37334.565   -27.061793    337.73835    17.319964    23.700358    21.641026    8883.4108 
   34500    411.58142    -3347.791   -2642.3546    -3347.791    536.77526    33455.168            0            0   -37339.735   -26.242529    665.48979    17.498357    23.944468    21.863926    9160.7413 
   35000    413.39374   -3313.3266   -2604.7839   -3313.3266    490.12183    33536.402            0            0    -37339.85    -27.24529    539.09835    17.280993    23.647031    21.592333     8823.581 
   35500    374.38115   -3296.6341   -2654.9576   -3296.6341    514.08104    33529.329            0            0   -37340.044   -25.623434    61.796298    17.638165    24.135779    22.038613    9382.0768 
   36000    404.42384   -3329.7026   -2636.5339   -3329.7026    468.82382    33538.927            0            0   -37337.453   -26.571518   -835.59464     17.42584    23.845237    21.773316    9047.3198 
   36500    394.35178    -3328.282   -2652.3765    -3328.282    463.71235    33549.499            0            0   -37341.493   -26.542235   -701.41018    17.432246    23.854003    21.781321    9057.3014 
   37000    377.92631   -3281.9338    -2634.181   -3281.9338    439.51015    33611.546            0            0    -37332.99   -26.298323   -1291.6809    17.485974    23.927523    21.848453    9141.3063 
   37500    412.69906   -3277.6718   -2570.3197   -3277.6718    482.92827    33575.469            0            0   -37336.069   -26.724592    577.79418    17.392506    23.799622    21.731665    8995.4983 
   38000    424.51934   -3227.2551   -2499.6435   -3227.2551    460.43598     33644.34            0            0   -37332.031   -25.721188   -209.79509    17.615792    24.105164    22.010658      9346.42 
   38500    392.99644   -3305.8258   -2632.2434   -3305.8258    492.68996     33540.03            0            0   -37338.545   -27.311136    886.80733    17.267094    23.628011    21.574966    8802.3077 
   39000    383.59634   -3220.2487   -2562.7777   -3220.2487    415.84335    33697.475            0            0   -37333.567   -26.252054   -1031.4517    17.496241    23.941572    21.861281    9157.4178 
   39500    414.68343   -3271.2308   -2560.4776   -3271.2308    415.37475    33648.077            0            0   -37334.683   -26.370841   -1458.7076    17.469931     23.90557    21.828407    9116.1683 
   40000    421.40626   -3280.7269    -2558.451   -3280.7269    484.69627    33570.698            0            0   -37336.121   -25.820592   -109.77368    17.593157    24.074191    21.982376    9310.4382 
   40500    387.95374   -3250.1791   -2585.2397   -3250.1791    447.82062    33635.248            0            0   -37333.247    -26.35662   -402.13773    17.473072    23.909869    21.832332    9121.0869 
   41000     403.3507   -3255.3185   -2563.9892   -3255.3185    424.70863    33657.259            0            0   -37337.286   -26.628399   -858.00971    17.413423    23.828246    21.757802    9027.9938 
   41500    397.00425   -3283.2051   -2602.7534   -3283.2051    454.37195    33601.076            0            0   -37338.653   -25.795955   -976.57288    17.598756    24.081852    21.989372    9319.3302 
   42000    393.78756   -3266.2985   -2591.3601   -3266.2985     473.3645    33596.853            0            0   -37336.516   -26.377749    41.982089    17.468406    23.903483    21.826501    9113.7808 
   42500    402.44232   -3345.4999   -2655.7276   -3345.4999    520.43274    33473.109            0            0   -37339.042   -26.901932    679.07993    17.354204     23.74721    21.683808    8936.1991 
   43000    399.60491    -3268.101   -2583.1919    -3268.101    504.23758    33562.337            0            0   -37334.675   -26.026331    306.03853    17.546676    24.010587    21.924299    9236.8387 
   43500    409.78247   -3335.9874   -2633.6342   -3335.9874    490.82507    33515.035            0            0   -37341.848   -27.139971    398.76736    17.303318    23.677579    21.620227    8857.8217 
   44000    408.48972   -3282.8968   -2582.7594   -3282.8968    549.47874    33504.058            0            0   -37336.434    -26.92148    2115.6452    17.350002    23.741461    21.678558    8929.7106 
   44500    389.45699   -3245.0381   -2577.5222   -3245.0381    522.68251    33572.457            0            0   -37340.178   -26.304654    1373.2403    17.484571    23.925603      21.8467    9139.1062 
   45000    407.77007   -3239.6203   -2540.7163   -3239.6203    454.69203    33644.191            0            0   -37338.503   -26.473039   -32.119269    17.447421    23.874768    21.800282    9080.9757 
   45500    408.61201   -3325.7498   -2625.4028   -3325.7498    500.42168    33514.217            0            0   -37340.388   -26.538952   -13.410192    17.432965    23.854986    21.782219    9058.4218 
   46000    411.84552   -3210.8661    -2504.977   -3210.8661    447.44593     33678.11            0            0   -37336.422   -26.225301   -239.17829    17.502188     23.94971    21.868712    9166.7595 
   46500    422.44877    -3251.262   -2527.1992    -3251.262    446.99423    33638.231            0            0   -37336.487   -26.208529   -317.54784    17.505921    23.954818    21.873376    9172.6255 
   47000    400.25416    -3293.243   -2607.2211    -3293.243    506.95164    33538.905            0            0     -37339.1   -26.560225    974.63177    17.428309    23.848616    21.776402    9051.1665 
   47500    394.87919   -3288.3331   -2611.5236   -3288.3331    464.86472    33587.927            0            0   -37341.125   -26.694313   -241.12058    17.399079    23.808617    21.739879    9005.7017 
   48000    404.21967   -3288.4931   -2595.6744   -3288.4931    528.84469    33516.592            0            0   -37333.929     -26.7779    1277.0956    17.380957    23.783819    21.717235    8977.5905 
   48500    388.52412   -3244.3802   -2578.4632   -3244.3802    453.26134    33638.467            0            0   -37336.108    -26.57997    39.420089    17.423993    23.842709    21.771008    9044.4428 
   49000     394.7808   -3316.5566   -2639.9159   -3316.5566    497.01565    33525.084            0            0   -37338.657   -27.187329    506.80356    17.293265    23.663823    21.607666    8842.3921 
   49500    427.65045    -3287.063   -2554.0847    -3287.063    459.41111    33591.322            0            0   -37337.796   -26.217813   -491.45898    17.503854     23.95199    21.870794    9169.3774 
   50000    374.64956   -3227.2156   -2585.0791   -3227.2156    463.07587    33648.097            0            0   -37338.388   -26.501661    160.04981    17.441138     23.86617    21.792431     9071.168 
   50500    368.40367   -3244.4206   -2612.9893   -3244.4206    519.73005    33574.237            0            0   -37338.388   -25.734924    799.28351    17.612657    24.100874    22.006741    9341.4312 
   51000    399.11361   -3369.9719   -2685.9048   -3369.9719    525.55346    33442.632            0            0   -37338.157   -26.422691    494.75656    17.458496    23.889923     21.81412    9098.2794 
   51500    401.83119   -3285.0162   -2596.2913   -3285.0162    522.72256    33531.355            0            0   -37339.093   -26.372614    866.85426    17.469539    23.905034    21.827918    9115.5555 
   52000    412.52211   -3274.6643   -2567.6155   -3274.6643    442.84253    33620.544            0            0    -37338.05   -26.200683   -1018.4705    17.507668    23.957209    21.875559    9175.3724 
   52500    381.67788   -3325.8193   -2671.6365   -3325.8193    435.65263    33577.091            0            0   -37338.563   -26.514536   -1118.1328    17.438314    23.862306    21.788903    9066.7633 
   53000    416.20951   -3243.0541   -2529.6853   -3243.0541    430.29844    33666.942            0            0   -37340.295   -26.483737    -866.7804    17.445072    23.871553    21.797346    9077.3073 
   53500     393.1416    -3241.584   -2567.7527    -3241.584     493.1203    33605.132            0            0   -37339.836   -27.317613    1412.2198    17.265729    23.626144    21.573261    8800.2207 
   54000    402.32652   -3264.0459    -2574.472   -3264.0459    464.28138    33609.544            0            0   -37337.871    -26.17866   -102.88656    17.512576    23.963925    21.881692    9183.0912 
   54500    403.49633   -3294.4002   -2602.8213   -3294.4002     462.8013    33578.042            0            0   -37335.243   -26.946047   -424.68364    17.344728    23.734244    21.671968    8921.5692 
   55000     397.4038   -3297.5208   -2616.3843   -3297.5208    512.56054    33525.183            0            0   -37335.265   -26.845515    806.49484    17.366352    23.763834    21.698987     8954.979 
   55500    387.76007   -3322.5171   -2657.9096   -3322.5171    497.52699    33521.377            0            0   -37341.422   -25.993845   -622.81515    17.553983    24.020585    21.933429    9248.3824 
   56000    405.13277   -3287.1667    -2592.783   -3287.1667    496.52922    33556.079            0            0   -37339.775   -26.517187     646.1067    17.437733    23.861511    21.788177    9065.8569 
   56500    403.37342    -3404.525   -2713.1567    -3404.525    518.29114    33418.664            0            0    -37341.48   -26.765965    50.803351     17.38354    23.787353    21.720462    8981.5936 
   57000       395.53   -3291.4915   -2613.5667   -3291.4915    453.76844    33594.287            0            0   -37339.547   -26.263384   -833.91184    17.493725    23.938129    21.858137    9153.4672 
   57500     409.8147   -3288.9092   -2586.5009   -3288.9092    463.51637    33585.976            0            0   -37338.401   -26.433866   -463.45813    17.456036    23.886556    21.811045    9094.4331 
   58000    408.48979   -3251.4784   -2551.3409   -3251.4784    501.44432    33579.771            0            0   -37332.693    -25.69081    548.96194    17.622732    24.114661     22.01933    9357.4714 
   58500    378.41356    -3285.338   -2636.7501    -3285.338    510.35835     33541.98            0            0   -37337.676   -26.986715    1152.4483    17.336011    23.722316    21.661076    8908.1248 
   59000    408.74759   -3280.1359   -2579.5565   -3280.1359    497.18915    33559.165            0            0    -37336.49   -26.528348    562.05143    17.435288    23.858164    21.785121    9062.0428 
   59500    396.09313   -3286.9687   -2608.0786   -3286.9687    432.88316    33618.548            0            0     -37338.4    -26.29587   -1291.0499    17.486518    23.928267    21.849132    9142.1591 
   60000    392.96707   -3326.8795   -2653.3474   -3326.8795    445.58884    33568.257            0            0   -37340.725   -26.869986   -1086.2248    17.361078    23.756618    21.692398    8946.8234 
   60500    417.01213   -3277.1507   -2562.4062   -3277.1507    383.03395     33678.03            0            0   -37338.214   -27.239202    -1754.581    17.282281    23.648792    21.593941    8825.5532 
   61000    388.32369   -3238.1179   -2572.5443   -3238.1179     385.5672     33717.43            0            0   -37341.115     -26.1409   -1967.9084    17.521004    23.975458    21.892223    9196.3559 
   61500    388.36826    -3277.823    -2612.173    -3277.823    413.19473    33646.576            0            0   -37337.594   -26.443391   -1437.3516    17.453939    23.883687    21.808426    9091.1571 
   62000    407.35095   -3375.4438   -2677.2582   -3375.4438    504.50144    33460.942            0            0   -37340.887   -27.154602    275.66316     17.30021    23.673326    21.616343    8853.0492 
   62500     417.1473   -3276.4844   -2561.5082   -3276.4844    472.09789    33589.119            0            0   -37337.701   -26.390473   -223.45009    17.465598    23.899641    21.822993    9109.3867 
   63000    388.78772   -3304.3278   -2637.9589   -3304.3278    470.19776    33564.922            0            0   -37339.447   -26.436817   -421.73475    17.455386    23.885667    21.810234    9093.4178 
   63500    419.14936   -3281.5879   -2563.1803   -3281.5879    517.14045    33539.783            0            0   -37338.511   -26.141199    801.73498    17.520938    23.975367    21.892139    9196.2509 
   64000    405.37089   -3314.4168   -2619.6249   -3314.4168    519.12867    33501.942            0            0   -37335.487     -26.0124    145.28163    17.549808    24.014873    21.928213    9241.7857 
   64500    386.45312   -3284.4532   -2622.0858   -3284.4532    472.58447     33582.54            0            0   -37339.578   -26.805713   -216.15536    17.374943     23.77559    21.709721    8968.2755 
   65000    384.96893   -3245.7241   -2585.9005   -3245.7241    452.56923    33636.447            0            0    -37334.74   -25.813127   -553.97093    17.594853    24.076511    21.984495    9313.1308 
   65500    415.14027   -3308.4396   -2596.9034   -3308.4396    455.98199    33575.322            0            0   -37339.743   -27.086583   -202.54013    17.314679    23.693125    21.634422    8875.2806 
   66000    384.77852   -3347.8124   -2688.3152   -3347.8124    478.90737     33513.24            0            0    -37339.96   -27.141395   -203.93661    17.303015    23.677165    21.619849    8857.3568 
   66500    382.64617   -3280.1628   -2624.3203   -3280.1628    404.75994    33654.761            0            0   -37339.684   -25.496205   -2353.5855    17.667455    24.175859    22.075211    9428.8945 
   67000    389.51026   -3296.8346   -2629.2273   -3296.8346    465.81768    33578.574            0            0   -37341.226   -26.979829   -242.26586    17.337486    23.724334    21.662919    8910.3984 
   67500    414.43296   -3282.6091   -2572.2852   -3282.6091    464.73007    33589.199            0            0   -37336.538   -26.112962   -288.33258    17.527251    23.984005    21.900028    9206.1952 
   68000    403.63773   -3279.5611   -2587.7399   -3279.5611    502.41008    33552.024            0            0   -37333.995   -26.016469    221.76373    17.548893    24.013621    21.927069    9240.3403 
   68500    418.22892   -3300.5235   -2583.6934   -3300.5235    497.85865    33541.249            0            0   -37339.631   -26.402515     239.4068    17.462942    23.896006    21.819675    9105.2319 
   69000    423.15424   -3378.2975   -2653.0256   -3378.2975     561.9635    33399.639            0            0     -37339.9   -26.102605    693.66823    17.529569    23.987177    21.902924    9209.8481 
   69500    384.78898   -3342.5708   -2683.0556   -3342.5708    493.05284    33505.211            0            0   -37340.834   -27.389048    237.83966    17.250706    23.605586    21.554489    8777.2682 
   70000    405.81583   -3256.9178   -2561.3633   -3256.9178     424.3785    33654.854            0            0    -37336.15   -26.147664   -1195.3824    17.519494    23.973391    21.890335    9193.9772 
   70500    395.15364   -3287.9423   -2610.6625   -3287.9423    471.41995    33576.428            0            0    -37335.79   -26.501538   -196.08685    17.441165    23.866207    21.792465    9071.2104 
   71000    410.60757   -3311.1861   -2607.4188   -3311.1861    491.94714    33534.084            0            0   -37337.217   -26.820261   -8.5482531    17.371801    23.771291    21.705795    8963.4111 
   71500    399.20688   -3227.9492   -2543.7223   -3227.9492    440.05988    33668.889            0            0   -37336.898   -26.003254   -661.30445    17.551865    24.017688    21.930783    9245.0362 
   72000    397.70008   -3285.9624   -2604.3181   -3285.9624    403.56464    33646.397            0            0   -37335.924   -27.095147   -1558.2535    17.312854    23.690629    21.632143    8872.4754 
   72500    393.08924   -3262.6448   -2588.9033   -3262.6448    475.02877    33601.491            0            0   -37339.165   -26.847743   -70.755724    17.365872    23.763177    21.698387    8954.2358 
   73000    413.89342   -3362.2337   -2652.8345   -3362.2337    485.52282    33492.404            0            0    -37340.16   -26.862252   -307.75446    17.362745    23.758898    21.694479    8949.3996 
   73500    416.12745   -3254.7394   -2541.5111   -3254.7394    433.69027    33649.901            0            0    -37338.33   -26.221547   -911.98498    17.503024    23.950853    21.869756    9168.0719 
   74000    401.37763     -3291.78   -2603.8325     -3291.78    528.42682    33519.551            0            0   -37339.758   -26.457074    1059.8799     17.45093    23.879569    21.804666    9086.4554 
   74500      381.042   -3235.2397   -2582.1467   -3235.2397    486.76718    33616.917            0            0   -37338.923   -26.377391      534.325    17.468485    23.903591      21.8266    9113.9046 
   75000    401.10125   -3273.2751   -2585.8013   -3273.2751    501.96792    33561.497            0            0    -37336.74    -27.01245    1001.3805    17.330504     23.71478    21.654195     8899.638 
   75500    396.35492   -3250.6462   -2571.3074   -3250.6462    483.77278    33601.492            0            0   -37335.911   -26.571408     658.8313    17.425864     23.84527    21.773346    9047.3574 
   76000    408.22249   -3241.2059   -2541.5265   -3241.2059    417.86737    33680.375            0            0   -37339.448   -26.369365   -911.96805    17.470257    23.906016    21.828814    9116.6784 
   76500     415.1813    -3237.928   -2526.3215    -3237.928    421.85755    33680.615            0            0   -37340.401   -25.615537   -1713.2153    17.639977    24.138259    22.040878    9384.9692 
   77000    428.80592    -3310.123   -2575.1643    -3310.123    451.65287    33573.294            0            0    -37335.07   -26.738455   -692.95477    17.389499    23.795509    21.727909    8990.8345 
   77500    399.59928    -3252.499   -2567.5995    -3252.499    475.23235    33608.554            0            0   -37336.285   -26.754404    555.23361    17.386043    23.790779    21.723591    8985.4747 
   78000     380.5017    -3254.806   -2602.6391    -3254.806    426.27567    33656.709            0            0   -37337.791   -27.012933   -806.38728      17.3304    23.714639    21.654066    8899.4787 
   78500    408.05038    -3230.332   -2530.9477    -3230.332    386.01393    33714.343            0            0   -37330.689   -26.195916   -2157.3924     17.50873    23.958662    21.876886    9177.0419 
   79000    373.32831   -3338.6335   -2698.7616   -3338.6335    505.44779    33495.911            0            0   -37339.992   -26.012213   -597.27076     17.54985     24.01493    21.928265    9241.8521 
   79500    394.96971   -3272.2685    -2595.304   -3272.2685    474.67503    33590.296            0            0    -37337.24   -26.509553    129.44402    17.439407    23.863801    21.790268    9068.4676 
   80000    390.19048   -3305.9329   -2637.1597   -3305.9329    466.50375    33563.459            0            0   -37335.895   -26.081119   -696.65464    17.534381    23.993762    21.908937    9217.4353 
   80500    398.71943   -3292.9318   -2609.5403   -3292.9318    497.71172    33544.915            0            0   -37335.558    -26.84413    714.90895    17.366651    23.764243     21.69936     8955.441 
   81000    430.29893   -3318.7156    -2581.198   -3318.7156      519.077    33499.637            0            0    -37337.43   -26.274919    693.66141    17.491164    23.934625    21.854938    9149.4488 
   81500    394.36427   -3279.2347   -2603.3078   -3279.2347    485.11223    33573.675            0            0   -37338.022   -26.565233    151.44322    17.427214    23.847117    21.775033    9049.4605 
   82000    391.51644   -3285.5882   -2614.5425   -3285.5882    461.66744    33591.902            0            0   -37339.158   -26.690949   -263.96659     17.39981    23.809618    21.740792     9006.837 
   82500    400.24081   -3244.5883   -2558.5893   -3244.5883    457.08438    33632.389            0            0   -37334.061   -27.202853    793.60705    17.289975    23.659321    21.603555    8837.3459 
   83000    393.09615   -3285.7865   -2612.0332   -3285.7865    390.24674    33665.768            0            0   -37341.801   -26.833671   -2002.2494    17.368907     23.76733    21.702179    8958.9317 
   83500     396.2819   -3282.6483   -2603.4347   -3282.6483    495.80457    33559.147            0            0     -37337.6   -26.474989    672.12284    17.446993    23.874182    21.799747    9080.3069 
   84000    392.55657   -3268.7282   -2595.8997   -3268.7282     422.8473    33651.845            0            0    -37343.42   -26.186995   -1282.2291    17.510718    23.961383     21.87937    9180.1685 
   84500    400.99753   -3309.6502   -2622.3542   -3309.6502    419.32882    33615.023            0            0   -37344.002   -26.906159   -1294.0507    17.353295    23.745967    21.682672    8934.7954 
   85000    385.23642   -3259.9343   -2599.6522   -3259.9343    485.76317     33595.57            0            0   -37341.267   -27.084773    901.44694    17.315065    23.693653    21.634904    8875.8737 
   85500    389.66459    -3314.612   -2646.7402    -3314.612    429.27098    33591.761            0            0   -37335.644    -26.16555   -1763.1907    17.515501    23.967927    21.885346    9187.6923 
   86000    412.74598   -3243.7279   -2536.2954   -3243.7279    455.52425    33634.668            0            0    -37333.92   -26.562528   -362.17519    17.427806    23.847927    21.775773     9050.382 
   86500     404.0531   -3282.6235   -2590.0903   -3282.6235    463.20466    33586.624            0            0   -37332.452    -25.78391   -1061.4703    17.601496    24.085602    21.992796    9323.6838 
   87000    409.42393   -3276.4057   -2574.6671   -3276.4057    413.29841    33648.672            0            0   -37338.376    -26.54193   -1320.8558    17.432313    23.854094    21.781404    9057.4055 
   87500    380.89148   -3220.1777   -2567.3427   -3220.1777    517.58163    33600.986            0            0   -37338.745   -26.026644     947.2454    17.546606    24.010491    21.924211    9236.7278 
   88000    391.53641   -3274.4287   -2603.3487   -3274.4287    462.51002    33601.547            0            0   -37338.486   -26.446841    -240.3257     17.45318    23.882649    21.807478    9089.9712 
   88500    400.60253   -3244.9122   -2558.2931   -3244.9122    469.57037    33624.164            0            0   -37338.646   -25.969262   -227.01498     17.55952    24.028162    21.940348    9257.1374 
   89000     417.0074   -3270.5731   -2555.8367   -3270.5731    475.96599     33586.94            0            0   -37333.479    -26.65163    325.92428    17.408363    23.821321    21.751478    9020.1247 
   89500    411.55568   -3314.6367   -2609.2443   -3314.6367    442.08614    33582.023            0            0   -37338.746   -27.025774   -673.70925    17.327655    23.710882    21.650636    8895.2501 
   90000    398.33481   -3305.2254   -2622.4931   -3305.2254    557.50638    33474.297            0            0   -37337.029   -27.029444    2398.4953    17.326871    23.709809    21.649656    8894.0424 
   90500    390.20947   -3228.0376   -2559.2319   -3228.0376    372.14938    33737.746            0            0   -37337.933   -26.022579   -2476.2678     17.54752    24.011741    21.925353    9238.1705 
   91000    404.92231   -3304.6107   -2610.5878   -3304.6107    498.46206    33537.024            0            0   -37340.097   -26.738104    544.25159    17.389575    23.795613    21.728004    8990.9525 
   91500     380.7353   -3284.2531   -2631.6858   -3284.2531    502.23917    33551.799            0            0   -37338.292     -26.9486    899.48358     17.34418    23.733495    21.671284     8920.724 
   92000     396.5079   -3308.8496   -2629.2487   -3308.8496    518.09648    33510.396            0            0   -37337.342   -26.704644    960.41066    17.396835    23.805547    21.737075    9002.2177 
   92500    416.06499   -3295.8709   -2582.7497   -3295.8709    451.22342    33592.145            0            0   -37339.239   -26.453264   -829.69761    17.451768    23.880716    21.805713    9087.7641 
   93000    380.91044   -3210.4037   -2557.5363   -3210.4037    534.14815     33595.67            0            0   -37340.222   -26.308554    1440.3104    17.483707    23.924421     21.84562    9137.7512 
   93500    388.00642   -3269.5663   -2604.5366   -3269.5663     484.8435    33584.297            0            0   -37338.707   -26.518271    374.04784    17.437496    23.861186     21.78788    9065.4862 
   94000    412.90564   -3313.1979   -2605.4917   -3313.1979    463.72542    33563.752            0            0   -37340.675   -26.365306   -831.57375    17.471153    23.907243    21.829935    9118.0821 
   94500    395.02736   -3342.5479   -2665.4845   -3342.5479    495.42913    33505.658            0            0   -37343.635   -27.020901     28.20211    17.328697    23.712307    21.651937    8896.8544 
   95000    381.94713    -3230.864   -2576.2197    -3230.864    455.60368    33643.443            0            0   -37329.911   -26.680443    -3.459564    17.402094    23.812742    21.743645    9010.3834 
   95500    387.67756   -3278.1695   -2613.7034   -3278.1695    451.37033    33606.168            0            0   -37335.708   -26.660641   -197.68008    17.406401    23.818637    21.749028     9017.076 
   96000    405.17544   -3326.5627   -2632.1059   -3326.5627    514.55604    33501.383            0            0   -37342.502   -26.319018    548.04031     17.48139     23.92125    21.842725    9134.1182 
   96500    419.70829   -3248.7219   -2529.3562   -3248.7219    487.35838    33602.408            0            0   -37338.488    -26.01277    380.21047    17.549725    24.014759    21.928109    9241.6542 
   97000    409.39334   -3192.9287   -2491.2425   -3192.9287    469.18596    33673.833            0            0   -37335.948    -24.95736   -410.71469    17.793701    24.348612    22.232953      9632.47 
   97500    404.76856   -3253.1611   -2559.4017   -3253.1611    447.20305    33641.632            0            0   -37341.996   -26.206895   -636.22094    17.506285    23.955316    21.873831    9173.1973 
   98000    404.26648   -3256.8245   -2563.9256   -3256.8245    462.45434    33613.745            0            0   -37333.023   -26.438628   -212.17889    17.454987    23.885121    21.809736    9092.7949 
   98500     386.4592   -3315.1639    -2652.786   -3315.1639     493.8234    33531.141            0            0   -37340.128   -26.519717   -194.41789    17.437179    23.860752    21.787484     9064.992 
   99000    396.87541   -3290.7432   -2610.5123   -3290.7432    500.88584    33546.692            0            0   -37338.321    -26.38489   -8.3949634     17.46683    23.901326    21.824532    9111.3142 
   99500    412.43281   -3261.7851   -2554.8894   -3261.7851    436.07846    33642.502            0            0   -37340.366   -26.800105   -393.43617    17.376155    23.777248    21.711236    8970.1524 
  100000     395.3163   -3249.5245   -2571.9659   -3249.5245    453.11068    33634.455            0            0    -37337.09   -25.631087   -960.36132    17.636409    24.133376    22.036419    9379.2752 
  100500    379.98774   -3328.8333   -2677.5473   -3328.8333    448.22699    33564.249            0            0   -37341.309   -26.413259   -1097.8539    17.460574    23.892766    21.816716    9101.5281 
  101000    420.45901   -3304.5977   -2583.9453   -3304.5977    520.15635    33512.846            0            0     -37337.6   -26.588754    905.74882    17.422074    23.840083     21.76861    9041.4549 
  101500    407.41871   -3300.6166   -2602.3148   -3300.6166    444.48295    33592.598            0            0   -37337.697   -26.757931   -768.48682    17.385279    23.789734    21.722636    8984.2905 
  102000    393.85672   -3243.4493   -2568.3924   -3243.4493    527.24639    33568.204            0            0   -37338.899    -26.58048    1654.2244    17.423882    23.842557    21.770869    9044.2696 
  102500    395.61134   -3266.1388   -2588.0745   -3266.1388    485.89259    33583.432            0            0   -37335.463   -25.509105   -369.40282    17.664476    24.171783    22.071489    9424.1259 
  103000    384.27284   -3273.9781   -2615.3476   -3273.9781    485.67249    33581.474            0            0   -37341.125   -26.496472    162.00804    17.442276    23.867728    21.793853    9072.9445 
  103500    400.70644   -3271.5366   -2584.7394   -3271.5366    492.03983    33572.623            0            0   -37336.199   -26.234926     605.8638    17.500048    23.946781    21.866038    9163.3963 
  104000    410.28254    -3246.512   -2543.3018    -3246.512    450.34218    33643.765            0            0    -37340.62   -26.656783   -183.65388    17.407241    23.819786    21.750077    9018.3811 
  104500    407.76705   -3306.8902   -2607.9914   -3306.8902    484.57307     33544.47            0            0   -37335.934   -26.604291   -34.443585    17.418682    23.835441    21.764372    9036.1747 
  105000    404.10103   -3305.0802   -2612.4648   -3305.0802    448.02661    33589.496            0            0   -37342.602   -26.955237   -475.04681    17.342757    23.731547    21.669505    8918.5276 
  105500    383.01015   -3363.3309   -2706.8646   -3363.3309    471.12702    33505.821            0            0   -37340.279   -27.405012   -257.40126    17.247356    23.601001    21.550303    8772.1555 
  106000    414.14615   -3313.2089   -2603.3766   -3313.2089    444.63467    33583.544            0            0   -37341.387   -26.544345   -883.43924    17.431784     23.85337    21.780743    9056.5813 
  106500    388.49737   -3306.0875   -2640.2163   -3306.0875    516.32909    33513.038            0            0   -37335.455   -27.278334    1180.4972    17.274013    23.637479     21.58361    8812.8926 
  107000     386.4851   -3279.5905   -2617.1682   -3279.5905    501.38696    33558.275            0            0   -37339.252   -26.144411    427.71423     17.52022    23.974385    21.891243    9195.1211 
  107500    391.36595   -3238.5829   -2567.7951   -3238.5829    457.24753    33639.188            0            0   -37335.019    -26.43907   -168.52832     17.45489    23.884989    21.809614     9092.643 
  108000    409.42029   -3306.4315   -2604.6991   -3306.4315    484.03997     33545.55            0            0   -37336.021   -26.445221   -115.13209    17.453537    23.883136    21.807923    9090.5279 
  108500     381.2637   -3273.0774   -2619.6045   -3273.0774     473.4672     33592.67            0            0   -37339.215   -26.932375   -23.814425    17.347662     23.73826    21.675635    8926.0982 
  109000    404.71399   -3316.8429    -2623.177   -3316.8429    472.18401    33547.423            0            0   -37336.449   -26.523288    -265.5899    17.436396    23.859681    21.786506    9063.7714 
  109500    392.61704   -3353.8594   -2680.9272   -3353.8594    402.16662    33585.511            0            0   -37341.537   -26.706761    -2299.314    17.396376    23.804918    21.736501    9001.5043 
  110000    400.21772   -3280.5933   -2594.6338   -3280.5933    466.29757    33586.439            0            0    -37333.33   -27.042177     213.0478    17.324151    23.706087    21.646257    8889.8546 
  110500    417.76226   -3237.8295   -2521.7992   -3237.8295      432.269    33670.704            0            0   -37340.802   -25.532208   -1416.0109    17.659147     24.16449     22.06483    9415.5985 
  111000    393.00798   -3300.7214   -2627.1192   -3300.7214    492.89569    33541.426            0            0   -37335.043   -26.190558    25.032231    17.509924    23.960296    21.878378    9178.9194 
  111500     429.4688   -3248.5544   -2512.4596   -3248.5544    452.13257    33631.205            0            0   -37331.892    -26.25172   -500.74379    17.496315    23.941673    21.861374     9157.534 
  112000    403.78703   -3293.3936   -2601.3164   -3293.3936    488.24357    33554.662            0            0   -37336.299   -26.649818    140.25056    17.408757    23.821861    21.751971    9020.7379 
  112500    425.10395   -3304.6462   -2576.0326   -3304.6462    484.00874    33548.959            0            0   -37337.614   -26.372615    93.646965    17.469539    23.905034    21.827918     9115.555 
  113000    403.90379   -3286.0837   -2593.8064   -3286.0837    474.39374    33581.488            0            0   -37341.965   -26.868926    448.80914    17.361307     23.75693    21.692683    8947.1764 
  113500    397.71528   -3282.8937   -2601.2233   -3282.8937    455.62278    33600.576            0            0   -37339.092   -25.834766   -939.19197    17.589939    24.069787    21.978355    9305.3299 
  114000    394.64358   -3270.3788   -2593.9733   -3270.3788    465.54507    33600.423            0            0   -37336.347   -26.690257    319.01744     17.39996    23.809823     21.74098    9007.0702 
  114500     392.8338   -3296.9977    -2623.694   -3296.9977    473.66182    33570.027            0            0   -37340.686   -27.027725    310.47825    17.327238    23.710312    21.650115    8894.6083 
  115000     384.0029   -3256.3559    -2598.188   -3256.3559    508.06549    33568.108            0            0    -37332.53   -26.686192    1230.4369    17.400844    23.811032    21.742084    9008.4423 
  115500    382.06064   -3354.2134   -2699.3745   -3354.2134    492.85196    33490.099            0            0   -37337.164   -26.885592   -160.81015    17.357719     23.75202      21.6882    8941.6303 
  116000    411.00443   -3344.5191   -2640.0716   -3344.5191    554.52021    33440.244            0            0   -37339.283   -26.706943    1277.4118    17.396336    23.804864    21.736451     9001.443 
  116500    385.36328   -3282.9824   -2622.4829   -3282.9824     466.3056    33592.255            0            0   -37341.543    -26.46599   -525.61474     17.44897    23.876888    21.802217    9083.3945 
  117000    386.92507   -3345.7157   -2682.5394   -3345.7157    457.76451    33536.003            0            0   -37339.484   -26.984735   -756.41087    17.336435    23.722896    21.661606    8908.7784 
  117500    391.71372   -3277.8555   -2606.4716   -3277.8555     490.1303    33577.877            0            0   -37345.862   -26.926088    528.68148    17.349012    23.740107    21.677321    8928.1823 
  118000    392.80454   -3340.1933   -2666.9398   -3340.1933    524.87712    33471.716            0            0   -37336.786   -27.410335     1337.618    17.246239    23.599473    21.548907    8770.4517 
  118500    393.09847   -3306.4622   -2632.7049   -3306.4622      476.159    33557.354            0            0   -37339.975   -27.406597    405.81854    17.247023    23.600546    21.549887    8771.6482 
  119000    386.72993     -3284.04   -2621.1982     -3284.04    488.17272    33568.342            0            0   -37340.555   -25.988599   -82.589992    17.555164    24.022201    21.934904    9250.2493 
  119500    383.06263   -3243.6017   -2587.0454   -3243.6017    459.59271    33635.581            0            0   -37338.776   -26.887372    145.18893    17.357336    23.751496    21.687721    8941.0384 
  120000    407.93933   -3343.3584   -2644.1644   -3343.3584    547.97581    33448.352            0            0   -37339.686   -27.183879    1982.7104    17.293997    23.664824     21.60858    8843.5142 
  120500    409.20646   -3316.6335   -2615.2677   -3316.6335    521.03114    33503.667            0            0   -37341.332   -27.375896    1613.5682    17.253468    23.609365     21.55794     8781.485 
  121000    388.58534   -3198.2467   -2532.2247   -3198.2467    453.16009    33682.956            0            0   -37334.363   -26.596876    240.63125      17.4203    23.837656    21.766394    9038.6938 
  121500    383.89249   -3225.6255    -2567.647   -3225.6255    476.28815    33637.685            0            0   -37339.599   -26.845817    946.95524    17.366287    23.763745    21.698906    8954.8783 
  122000    404.71769   -3276.5343    -2582.862   -3276.5343    490.66437    33571.431            0            0    -37338.63   -26.389664     286.9662    17.465776    23.899885    21.823216    9109.6658 
  122500    407.58567   -3329.6039    -2631.016   -3329.6039    498.41466    33512.965            0            0   -37340.984   -27.266377    423.19748    17.276537    23.640933    21.586765    8816.7569 
  123000     408.6163   -3254.5831   -2554.2288   -3254.5831    490.38958    33592.341            0            0   -37337.314   -26.360573     527.4842    17.472199    23.908673    21.831241    9119.7191 
  123500    403.95292    -3234.208   -2541.8465    -3234.208    446.97421     33648.43            0            0   -37329.612   -26.770948    151.06144    17.382461    23.785877    21.719115    8979.9219 
  124000    381.75004   -3210.5413   -2556.2348   -3210.5413    436.61972    33693.342            0            0   -37340.503   -25.587895   -1077.9139    17.646327    24.146947    22.048811    9395.1073 
  124500    395.90263   -3321.6472   -2643.0837   -3321.6472     536.4311    33478.276            0            0   -37336.354   -26.798267    944.74974    17.376552    23.777792    21.711732    8970.7675 
  125000    398.87143   -3323.7203   -2640.0683   -3323.7203    492.55548    33524.749            0            0   -37341.025    -26.38298   -37.169941    17.467251    23.901903    21.825059     9111.974 
  125500    397.62027   -3330.1351   -2648.6275   -3330.1351    468.18928    33537.357            0            0   -37335.681   -27.076972   -241.82859    17.316727    23.695928    21.636981    8878.4307 
  126000    406.19068   -3324.1164   -2627.9195   -3324.1164    461.87264    33553.202            0            0   -37339.191   -26.929801   -355.41266    17.348215    23.739016    21.676325    8926.9515 
  126500    392.11254   -3287.6446   -2615.5771   -3287.6446    510.36219    33541.299            0            0   -37339.306   -26.531227    815.68341    17.434657    23.857301    21.784333    9061.0593 
  127000    386.28627    -3280.351   -2618.2695    -3280.351    393.04533    33661.941            0            0   -37335.338   -26.402989   -2423.1105    17.462838    23.895863    21.819544    9105.0683 
  127500    398.69925     -3225.62   -2542.2632     -3225.62    467.01341     33644.33            0            0   -37336.964    -26.47703      145.373    17.446545    23.873568    21.799186     9079.607 
  128000    404.84633   -3288.2408   -2594.3481   -3288.2408    522.31521    33531.878            0            0   -37342.434   -26.442252    695.32204     17.45419     23.88403    21.808739    9091.5489 
  128500    408.31898   -3280.5421   -2580.6973   -3280.5421    476.75142     33573.02            0            0   -37330.314   -25.715625   -610.72229    17.617062    24.106902    22.012245    9348.4419 
  129000    405.71244   -3327.5864   -2632.2092   -3327.5864    475.93765    33537.264            0            0   -37340.789   -26.298441   -479.86294    17.485948    23.927487     21.84842    9141.2652 
  129500    391.55971   -3319.4451   -2648.3252   -3319.4451    469.20201    33548.343            0            0    -37336.99   -25.999647   -932.56616    17.552677    24.018798    21.931797    9246.3186 
  130000    378.47775   -3316.2764   -2667.5785   -3316.2764    467.37542    33553.152            0            0   -37336.804   -27.113235    55.033635    17.309003    23.685359    21.627331    8866.5561 
  130500    398.23134   -3305.6956   -2623.1407   -3305.6956    503.74084    33530.779            0            0   -37340.215   -26.526959    300.41368    17.435592    23.858581    21.785501    9062.5173 
  131000     400.7286   -3271.4855   -2584.6504   -3271.4855    475.43307    33588.503            0            0   -37335.422   -26.319126    77.250297    17.481366    23.921217    21.842695    9134.0807 
  131500    397.84095    -3294.742   -2612.8562    -3294.742     516.3923     33527.41            0            0   -37338.544   -26.787114    1009.7149    17.378963    23.781092    21.714745    8974.5025 
  132000    414.52993   -3277.7396   -2567.2495   -3277.7396    423.40889    33641.477            0            0   -37342.625   -26.712874   -1143.3719    17.395048    23.803102    21.734843    8999.4442 
  132500    414.91595    -3298.341   -2587.1893    -3298.341    459.96607    33581.665            0            0   -37339.972   -27.065129   -271.10645    17.319253    23.699384    21.640137    8882.3159 
  133000    395.21674   -3303.9619    -2626.574   -3303.9619    528.90363    33502.074            0            0   -37334.939   -27.097961    1360.8866    17.312255    23.689809    21.631394     8871.554 
  133500    400.89342   -3242.2997   -2555.1821   -3242.2997    429.41955     33670.83            0            0    -37342.55   -26.536097   -322.90554     17.43359    23.855842       21.783    9059.3965 
  134000    407.60544   -3303.3333   -2604.7116   -3303.3333    511.23707    33523.015            0            0   -37337.586   -27.006201    1138.8031     17.33184    23.716609    21.655865     8901.697 
  134500    403.22043   -3278.3881   -2587.2821   -3278.3881    454.57132    33606.354            0            0   -37339.314   -26.974735   -232.81647    17.338577    23.725827    21.664283    8912.0811 
  135000    402.94258   -3279.7554   -2589.1256   -3279.7554    477.59725    33580.115            0            0   -37337.468   -26.822833    24.927247    17.371246    23.770531    21.705102    8962.5516 
  135500    391.57436   -3288.2742   -2617.1292   -3288.2742    518.43601    33528.799            0            0   -37335.509   -26.417207    690.46451    17.459704    23.891576    21.815629     9100.168 
  136000    381.07652    -3322.918   -2669.7659    -3322.918     470.4227    33542.284            0            0   -37335.625   -26.277816   -733.09152    17.490522    23.933746    21.854135    9148.4401 
  136500    394.79756   -3327.1172   -2650.4477   -3327.1172    491.89023    33522.727            0            0   -37341.735   -26.920176    202.38703    17.350282    23.741845    21.678908    8930.1429 
  137000    385.73089   -3244.3757   -2583.2461   -3244.3757     433.5659    33649.422            0            0   -37327.364   -25.916454     -1128.85    17.571439    24.044471    21.955239    9275.9998 
  137500    399.66601   -3269.3468   -2584.3329   -3269.3468    454.88384    33611.657            0            0   -37335.887   -26.565487   -95.997788    17.427159    23.847041    21.774964    9049.3739 
  138000    385.87592   -3222.7419   -2561.3637   -3222.7419    399.94467    33711.763            0            0   -37334.449   -26.427976   -1199.1345    17.457332     23.88833    21.812665    9096.4599 
  138500    387.45522   -3270.5592   -2606.4742   -3270.5592    466.89804     33602.45            0            0   -37339.907   -26.450653   -254.46025    17.452342    23.881501     21.80643    9088.6611 
  139000    393.32711   -3253.7919   -2579.6427   -3253.7919    468.81674    33616.935            0            0   -37339.543   -26.231901   -176.67649     17.50072    23.947702    21.866878    9164.4531 
  139500    434.25047   -3335.8685   -2591.5781   -3335.8685     505.9941    33494.206            0            0   -37336.069   -26.807647    542.42309    17.374525    23.775018    21.709199    8967.6287 
  140000    399.22296    -3266.481   -2582.2265    -3266.481    432.15818    33634.052            0            0   -37332.691   -26.684328   -777.47548    17.401249    23.811587     21.74259    9009.0715 
  140500    419.68006   -3258.7079   -2539.3907   -3258.7079    495.23078    33578.394            0            0   -37332.333   -26.646332    869.56325    17.409516    23.822899     21.75292    9021.9182 
  141000    401.21525   -3256.2215   -2568.5523   -3256.2215    454.93809    33626.472            0            0   -37337.631   -26.818032    271.11592    17.372282    23.771949    21.706397     8964.156 
  141500    392.06896   -3310.5824   -2638.5897   -3310.5824    492.18802    33539.298            0            0   -37342.069   -26.877624    172.49401    17.359434    23.754367    21.690343     8944.281 
  142000    418.45034   -3350.0961   -2632.8866   -3350.0961    512.88867    33475.906            0            0    -37338.89   -26.836762    611.37621     17.36824    23.766417    21.701346    8957.8997 
  142500    417.21238   -3304.6848   -2589.5971   -3304.6848    452.57789    33583.943            0            0   -37341.206   -27.426323   -174.17889    17.242887    23.594887     21.54472    8765.3393 
  143000     392.2017   -3293.7558   -2621.5355   -3293.7558    456.65231    33589.096            0            0   -37339.505   -26.014888   -800.79352    17.549249    24.014107    21.927513    9240.9016 
  143500     412.8596   -3281.0721   -2573.4449   -3281.0721    515.01974    33541.351            0            0   -37337.443   -26.161251    719.65145     17.51646     23.96924    21.886545     9189.202 
  144000    392.06097   -3265.0769   -2593.0978   -3265.0769    476.15523    33597.522            0            0   -37338.754   -27.340234    854.67159    17.260966    23.619626    21.567309    8792.9394 
  144500    391.81001      -3273.5   -2601.9511      -3273.5    454.96162    33608.906            0            0   -37337.368   -26.469777   -554.10091    17.448138    23.875749    21.801177    9082.0947 
  145000    388.18155   -3282.1506   -2616.8207   -3282.1506    446.84899    33607.693            0            0   -37336.692   -26.417823   -1045.8557    17.459569     23.89139     21.81546     9099.956 
  145500    388.22416    -3254.758   -2589.3551    -3254.758    480.63036    33601.459            0            0   -37336.847   -26.845306    563.56984    17.366397    23.763896    21.699043    8955.0487 
  146000    406.42506   -3342.8675   -2646.2688   -3342.8675    493.03585    33500.969            0            0   -37336.872   -26.166649   -509.54327    17.515255    23.967591    21.885039    9187.3064 
  146500    383.53924   -3300.1224   -2642.7493   -3300.1224    517.49022     33522.65            0            0   -37340.263   -26.366826    647.37016    17.470818    23.906783    21.829515    9117.5564 
  147000      400.206   -3295.2357   -2609.2963   -3295.2357    462.21289    33582.417            0            0   -37339.866   -26.062984   -587.85424    17.538447    23.999326    21.914017    9223.8487 
  147500    399.65229    -3303.506   -2618.5157    -3303.506    428.83914    33603.753            0            0   -37336.098   -26.847548   -1120.4505    17.365914    23.763234    21.698439     8954.301 
  148000    377.24896   -3284.0168    -2637.425   -3284.0168    404.77924    33652.559            0            0   -37341.355    -26.57478   -1666.0116    17.425127    23.844261    21.772426    9046.2095 
  148500    395.62214   -3203.9958    -2525.913   -3203.9958    412.23394    33711.244            0            0   -37327.474   -26.500612   -953.59429    17.441368    23.866485    21.792718     9071.527 
  149000    415.73763   -3294.9995   -2582.4394   -3294.9995    516.79848    33526.611            0            0   -37338.409   -27.343684    2003.6141     17.26024    23.618633    21.566402    8791.8301 
  149500    385.00602   -3200.1038   -2540.2167   -3200.1038     466.9223     33668.36            0            0   -37335.386   -25.592306    47.116986    17.645313     24.14556    22.047545     9393.488 
  150000     417.6551   -3323.3091   -2607.4625   -3323.3091    509.23118    33505.883            0            0   -37338.424   -26.516817    412.52057    17.437814    23.861622    21.788278    9065.9835 
  150500    392.37431   -3270.2122   -2597.6961   -3270.2122    482.73797    33579.687            0            0   -37332.638   -27.051852    751.09213    17.322086    23.703261    21.643677    8886.6752 
  151000    405.74555    -3324.206    -2628.772    -3324.206    570.92636    33443.993            0            0   -37339.125   -26.635865    1652.5524    17.411796     23.82602    21.755769    9025.4634 
  151500     385.1434   -3331.0873   -2670.9647   -3331.0873    497.08524     33509.44            0            0   -37337.613   -26.887219    211.34891    17.357369    23.751541    21.687762    8941.0892 
  152000    399.11985    -3267.605   -2583.5272    -3267.605    398.86147    33674.662            0            0   -37341.128   -26.472935    -1901.992    17.447444    23.874799     21.80031    9081.0113 
  152500     407.8901   -3324.2614   -2625.1517   -3324.2614    556.55355    33454.266            0            0   -37335.081   -26.567616    1621.7265    17.426693    23.846404    21.774382    9048.6487 
  153000    422.26469   -3350.6728   -2626.9256   -3350.6728    500.16532    33491.729            0            0   -37342.568   -27.354766    701.21682    17.257909    23.615443    21.563489    8788.2682 
  153500    388.90405   -3262.1001   -2595.5318   -3262.1001    448.31694     33626.36            0            0   -37336.777   -26.875158   -485.76804    17.359965    23.755094    21.691006    8945.1018 
  154000    403.67882   -3295.1069   -2603.2152   -3295.1069    452.33745    33591.818            0            0   -37339.262    -26.28034   -788.61105    17.489961    23.932979    21.853435    9147.5612 
  154500    377.85793   -3273.2061   -2625.5705   -3273.2061    450.18616    33616.237            0            0   -37339.629   -26.926005    -451.1514     17.34903    23.740132    21.677344    8928.2099 
  155000    390.39101   -3229.6021   -2560.4853   -3229.6021    465.30858    33643.365            0            0   -37338.275   -26.731965     309.4412    17.390906    23.797434    21.729667    8993.0171 
  155500    387.18555   -3317.6429   -2654.0202   -3317.6429    450.86752    33567.678            0            0   -37336.189   -26.961305   -844.92144    17.341455    23.729766    21.667879    8916.5201 
  156000    387.86011   -3309.4797   -2644.7007   -3309.4797    445.48423    33584.557            0            0   -37339.521   -27.295203   -890.28483    17.270453    23.632608    21.579163     8807.446 
  156500    436.97268   -3294.0951   -2545.1389   -3294.0951    440.27675    33605.826            0            0   -37340.198   -26.034468   -1259.0974    17.544848    24.008085    21.922015     9233.952 
  157000    380.77125   -3292.1719    -2639.543   -3292.1719    526.75948    33521.927            0            0   -37340.858   -26.206634    888.44134    17.506343    23.955395    21.873903    9173.2888 
  157500    403.67704   -3316.3838   -2624.4952   -3316.3838    468.91768    33551.255            0            0   -37336.557    -25.95142   -892.04089    17.563543    24.033668    21.945374    9263.5016 
  158000    381.73731   -3293.5326   -2639.2479   -3293.5326     494.8169    33550.162            0            0   -37338.511   -26.544011    78.549208    17.431857    23.853471    21.780835    9056.6956 
  158500    400.00509   -3268.4193   -2582.8243   -3268.4193    437.46538     33633.29            0            0   -37339.175   -26.649249   -449.96608    17.408881     23.82203    21.752126    9020.9304 
  159000    380.42075   -3284.9408   -2632.9127   -3284.9408    456.78608    33600.137            0            0   -37341.863   -26.050032   -766.03181    17.541353    24.003303    21.917648    9228.4348 
  159500    400.50697    -3285.294   -2598.8387    -3285.294     464.1112    33584.264            0            0   -37333.669   -26.823169   -168.87495    17.371173    23.770431    21.705011    8962.4392 
  160000    398.08673   -3296.9408   -2614.6338   -3296.9408    513.98714    33526.032            0            0    -37336.96   -26.565079    905.16556    17.427248    23.847163    21.775075    9049.5127 
  160500    395.53954    -3296.992   -2619.0507    -3296.992    446.59588    33591.698            0            0   -37335.285   -27.189383   -466.05256     17.29283    23.663227    21.607122    8841.7242 
  161000    404.20746   -3354.4719   -2661.6742   -3354.4719    502.92541    33482.973            0            0   -37340.371   -26.777973   -32.911377    17.380941    23.783797    21.717215    8977.5659 
  161500     394.8725   -3277.2111   -2600.4132   -3277.2111    482.27935    33575.469            0            0    -37334.96   -25.769882   -123.18553     17.60469    24.089971    21.996786    9328.7593 
  162000     419.4188   -3308.8084   -2589.9389   -3308.8084    521.74657    33501.676            0            0   -37332.231   -26.122389     586.4404    17.525142     23.98112    21.897393    9202.8727 
  162500    397.79796   -3301.9912   -2620.1791   -3301.9912    516.93782    33511.989            0            0   -37330.918   -26.162598    442.96271    17.516159    23.968828    21.886169    9188.7289 
  163000    392.11518   -3274.5757   -2602.5037   -3274.5757    510.89572    33556.295            0            0   -37341.767   -26.019077     465.4898    17.548307    24.012818    21.926337     9239.414 
  163500    392.56142    -3316.756   -2643.9191    -3316.756    496.89066    33525.248            0            0   -37338.895   -26.382932    17.973042    17.467262    23.901917    21.825072    9111.9903 
  164000    407.17659   -3351.5302   -2653.6434   -3351.5302    553.51344    33438.426            0            0   -37343.469   -27.510579    1955.8347    17.225266    23.570774    21.522702    8738.4938 
  164500    416.50373   -3331.0625   -2617.1894   -3331.0625     486.1772    33521.979            0            0   -37339.219    -27.44379    505.64386    17.239228     23.58988    21.540148    8759.7604 
  165000    401.05598   -3272.1066   -2584.7104   -3272.1066    436.81239    33630.063            0            0   -37338.982   -26.714793   -403.13479    17.394632    23.802532    21.734322     8998.798 
  165500    383.65179   -3227.0655   -2569.4994   -3227.0655    396.45081    33714.851            0            0   -37338.368   -26.645628   -1398.5704     17.40967    23.823109    21.753112    9022.1565 
  166000    407.97885   -3258.3168   -2559.0551   -3258.3168     397.7494    33682.726            0            0   -37338.792   -26.661637   -1461.4335    17.406184     23.81834    21.748757    9016.7391 
  166500    393.62168   -3282.4013   -2607.7472   -3282.4013    461.70487    33595.624            0            0    -37339.73   -26.626479   -92.765821    17.413842    23.828819    21.758325    9028.6448 
  167000    401.87018   -3279.9429   -2591.1511   -3279.9429    476.40371    33582.453            0            0     -37338.8   -26.436422   -17.977245    17.455473    23.885786    21.810342    9093.5535 
  167500     401.1299   -3310.5681   -2623.0452   -3310.5681    504.25874    33522.967            0            0   -37337.794   -27.004933    653.00992    17.332112     23.71698    21.656204     8902.115 
  168000    419.61301   -3235.0536   -2515.8513   -3235.0536    441.73996    33660.053            0            0   -37336.847   -26.279935   -382.62517    17.490051    23.933102    21.853547    9147.7022 
  168500    421.87466    -3292.635   -2569.5562    -3292.635    572.06599    33473.713            0            0   -37338.414   -26.910272    2507.2126    17.352411    23.744757    21.681567    8933.4295 
  169000    389.65155    -3333.983   -2666.1336    -3333.983    448.16013    33556.201            0            0   -37338.344   -26.490984   -1201.0186    17.443481    23.869376    21.795358    9074.8243 
  169500    411.13312   -3321.1487   -2616.4806   -3321.1487    473.78344    33543.067            0            0   -37337.999   -27.120747   -79.451284    17.307405    23.683173    21.625334    8864.1005 
  170000    404.56588   -3307.8397   -2614.4277   -3307.8397    405.24712    33627.351            0            0   -37340.438   -27.676934   -1241.1274    17.190685    23.523455    21.479494    8685.9702 
  170500    415.58364   -3324.7232   -2612.4271   -3324.7232      509.345     33506.64            0            0   -37340.708    -27.00523    812.22259    17.332048    23.716893    21.656125    8902.0172 
  171000    390.96332   -3252.2641   -2582.1663   -3252.2641    487.50158    33595.189            0            0   -37334.954   -26.070693   -16.690084    17.536718     23.99696    21.911857    9221.1214 
  171500    408.49786   -3231.3659   -2531.2145   -3231.3659    532.23644     33577.36            0            0   -37340.963   -26.051596    1635.8479    17.541002    24.002822    21.917209    9227.8807 
  172000    389.76676   -3272.8302   -2604.7834   -3272.8302    484.04564    33580.496            0            0   -37337.371   -26.122288  -0.78215015    17.525165    23.981151    21.897421    9202.9084 
  172500    405.36871   -3315.8803   -2621.0922   -3315.8803    452.54902    33572.618            0            0   -37341.047   -27.179815   -510.08714    17.294858    23.666004    21.609657    8844.8365 
  173000    382.46002   -3336.7363   -2681.2129   -3336.7363    492.45263    33511.487            0            0   -37340.676   -26.761077    187.89951    17.384598    23.788802    21.721785    8983.2342 
  173500    388.13737    -3288.048   -2622.7939    -3288.048     453.4383    33597.828            0            0   -37339.315   -26.398626   -473.57315      17.4638     23.89718    21.820746    9106.5734 
  174000    408.00786   -3293.6748   -2594.3633   -3293.6748    499.69217    33547.889            0            0   -37341.256   -26.184516    140.36582    17.511271    23.962139    21.880061    9181.0375 
  174500    395.23749   -3245.9161   -2568.4925   -3245.9161    435.96518    33657.159            0            0    -37339.04    -26.62909   -562.90214    17.413273     23.82804    21.757614    9027.7597 
  175000    405.81569   -3304.9719   -2609.4177   -3304.9719    462.98748    33569.307            0            0   -37337.267   -27.038383   -465.58802    17.324961    23.707196     21.64727    8891.1022 
  175500     419.4076   -3286.4661   -2567.6158   -3286.4661    442.58832    33610.063            0            0   -37339.117    -25.91683    -1471.839    17.571354    24.044355    21.955133    9275.8653 
  176000    395.33794   -3259.2645   -2581.6688   -3259.2645    500.40056    33574.447            0            0   -37334.112   -26.099163    336.56136    17.530339    23.988232    21.903886    9211.0626 
  176500    408.81134   -3282.8744   -2582.1857   -3282.8744    494.76274    33560.622            0            0   -37338.259   -26.288541     353.0796    17.488143     23.93049    21.851162    9144.7077 
  177000     388.5145   -3305.6375   -2639.7369   -3305.6375    488.96824    33546.004            0            0    -37340.61   -26.392047   -23.619399    17.465251    23.899165    21.822559    9108.8434 
  177500    392.33694   -3305.8651    -2633.413   -3305.8651    475.54016    33557.312            0            0   -37338.718   -27.090296    262.37481    17.313888    23.692043    21.633434    8874.0641 
  178000    402.52243   -3263.5535   -2573.6438   -3263.5535    424.49756    33650.844            0            0   -37338.895   -27.333165   -404.16396    17.262454    23.621662    21.569168    8795.2137 
  178500    399.44899   -3305.6635   -2621.0216   -3305.6635    494.25573    33542.346            0            0   -37342.265   -26.976681    728.27532     17.33816    23.725257    21.663761     8911.438 
  179000    403.13277   -3306.4586   -2615.5028   -3306.4586    540.15466    33488.647            0            0    -37335.26   -26.383189    1197.5064    17.467205     23.90184    21.825001    9111.9015 
  179500    381.17828   -3319.1314   -2665.8049   -3319.1314     519.2775     33502.14            0            0   -37340.549   -26.128448    106.97578    17.523787    23.979266      21.8957    9200.7388 
  180000    407.33936   -3274.0805   -2575.9148   -3274.0805    494.38572    33568.607            0            0   -37337.073   -26.127458    113.36912    17.524009    23.979569    21.895976    9201.0872 
  180500    415.02786   -3294.7665   -2583.4229   -3294.7665    453.99024    33593.639            0            0   -37342.396   -27.145612   -210.35576    17.302119    23.675939    21.618729     8855.981 
  181000    421.44083   -3267.3512    -2545.016   -3267.3512    479.47215    33588.158            0            0   -37334.981   -26.257598   -102.55265     17.49501    23.939887    21.859742    9155.4842 
  181500    408.35923   -3219.3227    -2519.409   -3219.3227    441.79082    33674.534            0            0   -37335.647   -26.003891   -526.92101    17.551722    24.017492    21.930604    9244.8098 
  182000    398.79558   -3293.9743   -2610.4524   -3293.9743    473.18803    33570.728            0            0    -37337.89     -26.5601   -384.08721    17.428337    23.848653    21.776436    9051.2092 
  182500    394.00637   -3284.2413   -2608.9279   -3284.2413    522.11741    33533.706            0            0   -37340.065    -25.66508    455.18254     17.62862    24.122717    22.026686    9366.8528 
  183000      401.835   -3279.9517   -2591.2202   -3279.9517    442.22039    33616.314            0            0   -37338.486   -26.342015   -909.23497    17.476301    23.914286    21.836366    9126.1439 
  183500    417.88966   -3269.7623   -2553.5137   -3269.7623    471.79007    33599.071            0            0   -37340.623   -25.759279   -268.19266    17.607105    24.093276    21.999804    9332.5992 
  184000    394.99153   -3240.0152   -2563.0132   -3240.0152    513.98546    33582.147            0            0   -37336.148   -25.830262    702.65236    17.590961    24.071186    21.979633    9306.9525 
  184500    406.58165   -3285.3508   -2588.4837   -3285.3508    464.61071    33586.947            0            0   -37336.909   -26.645296    63.068205    17.409742    23.823208    21.753202    9022.2688 
  185000    394.89215   -3294.5046   -2617.6729   -3294.5046    465.48301    33577.307            0            0   -37337.295    -26.26868   -562.03584    17.492549     23.93652    21.856668    9151.6218 
  185500    385.05206   -3275.5081   -2615.5421   -3275.5081    445.05733    33613.076            0            0   -37333.641   -26.237748   -905.00559     17.49942    23.945922    21.865254    9162.4105 
  186000    396.15561   -3261.7784   -2582.7813   -3261.7784    431.20798    33643.365            0            0   -37336.351    -25.67722   -1359.8955    17.625841    24.118914    22.023214     9362.424 
  186500    397.30414   -3215.8141   -2534.8485   -3215.8141    519.13092    33595.299            0            0   -37330.244   -25.687153    829.30313    17.623569    24.115805    22.020375    9358.8035 
  187000    393.36428   -3217.7245   -2543.5116   -3217.7245    437.85932    33680.068            0            0   -37335.652   -27.198174    213.99058    17.290966    23.660678    21.604794    8838.8664 
  187500    405.89065   -3298.9712   -2603.2885   -3298.9712    482.43826    33554.269            0            0   -37335.678    -26.81016    262.78278    17.373983    23.774276    21.708521    8966.7882 
  188000     374.8974   -3239.6987   -2597.1373   -3239.6987    464.49401    33630.247            0            0    -37334.44   -26.147881   -364.65391    17.519445    23.973324    21.890274    9193.9006 
  188500    398.17441   -3284.7758   -2602.3185   -3284.7758    480.53975    33574.161            0            0   -37339.476   -26.027426   -533.36416     17.54643     24.01025    21.923992      9236.45 
  189000    375.68166   -3254.0378   -2610.1323   -3254.0378    477.91259    33606.986            0            0   -37338.937   -25.705022   -561.00079    17.619484    24.110216    22.015272     9352.298 
  189500    372.81855   -3293.1888   -2654.1906   -3293.1888    493.18778    33548.201            0            0   -37334.578   -26.357085   -217.49232     17.47297    23.909728    21.832204    9120.9262 
  190000    421.51342   -3287.5145   -2565.0549   -3287.5145    480.02577    33572.657            0            0   -37340.197   -26.755349    213.36642    17.385838    23.790499    21.723335    8985.1574 
  190500    394.90908   -3313.8977   -2637.0371   -3313.8977     449.6821    33573.488            0            0   -37337.068   -26.859847   -1007.0381    17.363263    23.759607    21.695127    8950.2007 
  191000    392.12314   -3282.6428   -2610.5571   -3282.6428    445.46537    33606.487            0            0   -37334.595    -26.27032   -1069.6743    17.492185    23.936022    21.856213    9151.0503 
  191500     396.5097   -3272.3008   -2592.6967   -3272.3008     454.1509    33607.651            0            0   -37334.103    -26.57155   -332.32504    17.425833    23.845227    21.773308    9047.3088 
  192000    386.86954   -3312.2746   -2649.1935   -3312.2746    493.08779    33533.828            0            0    -37339.19   -25.971665   -530.90297    17.558979    24.027421    21.939671    9256.2808 
  192500    390.29137   -3265.5225   -2596.5765   -3265.5225    473.64714    33597.952            0            0   -37337.121   -26.343348     -224.541    17.476006    23.913883    21.835998    9125.6821 
  193000     421.4242   -3367.8493   -2645.5426   -3367.8493    556.91593    33411.807            0            0   -37336.572   -26.841653    1308.6716    17.367185    23.764974    21.700027    8956.2673 
  193500    393.59346   -3280.9465   -2606.3408   -3280.9465    451.10254    33603.675            0            0   -37335.724   -25.788495   -1216.8855    17.600453    24.084174    21.991492     9322.026 
  194000     414.5871   -3345.4563   -2634.8682   -3345.4563    486.87486    33506.165            0            0   -37338.496   -26.982636    380.40726    17.336884    23.723511    21.662168    8909.4714 
  194500    387.81312   -3257.9111   -2593.2127   -3257.9111    451.92242    33628.114            0            0   -37337.948   -26.443301   -315.58198    17.453959    23.883715    21.808451    9091.1882 
  195000    389.11568   -3237.3225   -2570.3915   -3237.3225    567.58926    33529.643            0            0   -37334.555   -26.515924    2530.6378     17.43801     23.86189    21.788522    9066.2886 
  195500    414.62849   -3270.5055   -2559.8465   -3270.5055    480.86586    33584.885            0            0   -37336.257   -26.599118    82.160714    17.419811    23.836986    21.765783    9037.9321 
  196000    405.97239   -3273.7391   -2577.9163   -3273.7391    462.52381    33595.691            0            0   -37331.953   -25.886562   -498.44084    17.578199    24.053723    21.963687    9286.7111 
  196500    412.87582   -3309.2412   -2601.5861   -3309.2412    497.12752     33532.71            0            0   -37339.078   -26.297996   -121.45647    17.486047    23.927622    21.848543      9141.42 
  197000     399.5287   -3249.5782   -2564.7997   -3249.5782    475.54231    33612.269            0            0   -37337.389   -26.236471    229.28632    17.499704    23.946311    21.865608    9162.8566 
  197500    409.61923   -3255.5116   -2553.4382   -3255.5116    486.57337    33598.043            0            0   -37340.128   -26.513953    417.61631    17.438442    23.862481    21.789063    9066.9628 
  198000    395.13996     -3313.19   -2635.9336     -3313.19    474.94617    33548.526            0            0   -37336.663   -26.700154   -281.11523     17.39781    23.806881    21.738293    9003.7316 
  198500    401.21963   -3238.2141   -2550.5374   -3238.2141    441.70265    33656.348            0            0   -37336.265    -25.82233   -938.37616    17.592762     24.07365    21.981883    9309.8114 
  199000    411.00346    -3272.758   -2568.3122    -3272.758    479.46292    33585.199            0            0    -37337.42   -27.016945    584.92842    17.329543    23.713465    21.652994    8898.1571 
  199500    398.66505   -3300.4035   -2617.1053   -3300.4035    414.72105    33621.673            0            0   -37336.797   -26.280274   -1877.1001    17.489976    23.932999    21.853453    9147.5842 
  200000    392.60608   -3245.9274    -2573.014   -3245.9274    426.08928    33662.727            0            0   -37334.744   -26.347854   -1217.6653     17.47501     23.91252    21.834753    9124.1215 
Loop time of 364.133 on 8 procs for 200000 steps with 864 atoms

Performance: 94.910 ns/day, 0.253 hours/ns, 549.249 timesteps/s
98.6% CPU use with 8 MPI tasks x 1 OpenMP threads

MPI task timing breakdown:
Section |  min time  |  avg time  |  max time  |%varavg| %total
---------------------------------------------------------------
Pair    | 172.25     | 186.7      | 202.28     |  99.9 | 51.27
Bond    | 0.041008   | 0.049803   | 0.061769   |   2.6 |  0.01
Kspace  | 81.542     | 97.679     | 113.52     | 140.3 | 26.82
Neigh   | 15.832     | 16.025     | 16.283     |   4.2 |  4.40
Comm    | 20.2       | 23.156     | 26.366     |  44.2 |  6.36
Output  | 0.71258    | 0.71318    | 0.71522    |   0.1 |  0.20
Modify  | 35.172     | 38.243     | 41.084     |  35.1 | 10.50
Other   |            | 1.571      |            |       |  0.43

Nlocal:    108 ave 119 max 92 min
Histogram: 1 0 0 0 1 1 3 1 0 1
Nghost:    3045.88 ave 3116 max 2968 min
Histogram: 1 1 0 0 1 1 2 1 0 1
Neighs:    27051.4 ave 30732 max 22708 min
Histogram: 1 0 0 0 2 2 2 0 0 1

Total # of neighbors = 216411
Ave neighs/atom = 250.476
Ave special neighs/atom = 2
Neighbor list builds = 18664
Dangerous builds = 9317

unfix		1
unfix		2
unfix		3

fix 		1 all shake 1e-6 200 0 b 1 a 1
  0 = # of size 2 clusters
  0 = # of size 3 clusters
  0 = # of size 4 clusters
  288 = # of frozen angles
  find clusters CPU = 0.00952294 secs
fix             2 all nph iso ${pressure} ${pressure} ${pressureDamp}
fix             2 all nph iso 1 ${pressure} ${pressureDamp}
fix             2 all nph iso 1 1 ${pressureDamp}
fix             2 all nph iso 1 1 1000
fix             3 all temp/csvr ${temperature2} ${temperature} ${tempDamp} ${seed}
fix             3 all temp/csvr 400 ${temperature} ${tempDamp} ${seed}
fix             3 all temp/csvr 400 270 ${tempDamp} ${seed}
fix             3 all temp/csvr 400 270 100 ${seed}
fix             3 all temp/csvr 400 270 100 745821

run             100000
PPPM initialization ...
  extracting TIP4P info from pair style
  using 12-bit tables for long-range coulomb (src/kspace.cpp:323)
  G vector (1/distance) = 0.333223
  grid = 15 18 16
  stencil order = 5
  estimated absolute RMS force accuracy = 0.0226148
  estimated relative force accuracy = 6.81037e-05
  using double precision FFTW3
  3d grid and FFT values/proc = 3360 576
Per MPI rank memory allocation (min/avg/max) = 8.471 | 8.472 | 8.474 Mbytes
Step Temp PotEng TotEng E_pair E_vdwl E_coul E_bond E_angle E_long E_tail Press Lx Ly Lz Volume 
  200000    392.60608   -3245.9336   -2573.0202   -3245.9336    426.08928    33808.127            0            0    -37480.15   -26.347854   -1187.2266     17.47501     23.91252    21.834753    9124.1215 
  200500    389.02291    -3285.003   -2618.2311    -3285.003    511.82349    33688.318            0            0   -37485.145   -26.474122    613.16387    17.447183    23.874442    21.799984    9080.6042 
  201000    406.01671   -3250.8147   -2554.9159   -3250.8147    445.66438    33785.824            0            0   -37482.303   -25.665847   -882.75627    17.628444    24.122476    22.026467    9366.5726 
  201500    402.96623   -3327.9018   -2637.2315   -3327.9018    459.60167    33696.093            0            0   -37483.596   -27.343039   -42.253835    17.260376    23.618818    21.566571    8792.0373 
  202000     379.8773   -3306.1774   -2655.0807   -3306.1774    541.55966    33637.145            0            0   -37484.882   -27.363684    1919.1122    17.256034    23.612877    21.561146    8785.4041 
  202500    421.39391    -3355.213   -2632.9583    -3355.213    471.46247    33656.179            0            0   -37482.854   -26.625552   -621.65586    17.414044    23.829095    21.758578    9028.9593 
  203000    399.18146   -3269.6122   -2585.4288   -3269.6122    431.11208    33782.459            0            0   -37483.183   -26.384325   -1020.3122    17.466954    23.901497    21.824688    9111.5094 
  203500    406.22913   -3316.3514   -2620.0885   -3316.3514    479.74001    33688.063            0            0   -37484.154   -26.314342   -598.74319    17.482425    23.922667    21.844018    9135.7414 
  204000     381.3797   -3238.2187    -2584.547   -3238.2187    473.72205    33770.817            0            0   -37482.758   -26.097399   -67.702462    17.530734    23.988772     21.90438     9211.685 
  204500    376.72349   -3285.2975   -2639.6064   -3285.2975    421.10921    33781.104            0            0   -37487.511   -27.004899   -1225.6091    17.332119     23.71699    21.656213    8902.1264 
  205000    393.74723   -3321.6238   -2646.7545   -3321.6238      496.487    33664.314            0            0   -37482.425   -27.025173     605.7097    17.327784    23.711058    21.650796     8895.448 
  205500    360.06632   -3293.5582   -2676.4168   -3293.5582    471.14034    33715.227            0            0   -37479.926   -26.908451   -463.20617    17.352802    23.745293    21.682056    8934.0342 
  206000    388.22364   -3337.8953   -2672.4933   -3337.8953    442.22594    33704.209            0            0    -37484.33   -26.776477   -1617.0064    17.381265     23.78424     21.71762    8978.0678 
  206500    395.27787   -3308.4735   -2630.9808   -3308.4735    481.58632    33697.353            0            0   -37487.413   -27.410139    660.54418     17.24628     23.59953    21.548959    8770.5146 
  207000    395.03604   -3300.3169   -2623.2387   -3300.3169     421.6642     33764.98            0            0   -37486.961   -27.062863   -995.62427    17.319736    23.700046    21.640741    8883.0596 
  207500    390.48436   -3304.0064   -2634.7296   -3304.0064    504.68239    33674.155            0            0   -37482.843   -27.170892    1301.9601    17.296751    23.668594    21.612022    8847.7411 
  208000    389.58592   -3312.4004   -2644.6635   -3312.4004    496.60762    33677.557            0            0   -37486.565   -27.069093    850.00469    17.318407    23.698227    21.639081    8881.0152 
  208500    393.36237   -3295.4111   -2621.2014   -3295.4111    537.25371    33651.406            0            0    -37484.07   -27.612485    2342.1779    17.204049    23.541742    21.496192    8706.2435 
  209000    382.20277   -3279.6952   -2624.6127   -3279.6952    462.15068    33744.804            0            0    -37486.65   -26.489738   -603.87305    17.443754     23.86975      21.7957    9075.2512 
  209500    381.87639   -3295.9113   -2641.3882   -3295.9113     464.2336    33718.503            0            0   -37478.648   -26.545394    -823.5788    17.431555    23.853056    21.780457    9056.2236 
  210000     371.7096   -3285.2414   -2648.1439   -3285.2414    515.05913    33679.467            0            0   -37479.768   -26.209724    148.47082    17.505655    23.954454    21.873044    9172.2072 
  210500     390.8419   -3284.9587   -2615.0691   -3284.9587    502.77959    33693.666            0            0   -37481.404   -26.730647    679.82422    17.391192    23.797825    21.730024    8993.4607 
  211000    387.77409   -3312.2198   -2647.5883   -3312.2198    525.98243     33647.82            0            0   -37486.022   -26.251416    570.61436    17.496383    23.941766    21.861458    9157.6401 
  211500    377.25842    -3348.221    -2701.613    -3348.221    487.20549    33651.518            0            0   -37486.944   -26.626512   -568.68574    17.413835    23.828809    21.758316    9028.6337 
  212000    381.96548   -3450.3413   -2795.6656   -3450.3413    599.07898    33440.445            0            0   -37489.865   -26.518027    1256.2701    17.437549    23.861259    21.787947    9065.5696 
  212500    398.11511   -3413.2417    -2730.886   -3413.2417    592.04721     33479.25            0            0   -37484.539   -26.592984    1766.6175     17.42115    23.838819    21.767456     9040.017 
  213000    355.90173   -3397.2227   -2787.2193   -3397.2227    527.05623    33561.224            0            0   -37485.503   -26.876359    101.97112    17.359706     23.75474    21.690683    8944.7022 
  213500    367.96492   -3402.3888   -2771.7095   -3402.3888    534.64068    33552.177            0            0   -37489.207   -27.506826    806.88631    17.226049    23.571846    21.523681    8739.6861 
  214000    374.27733   -3344.8558   -2703.3572   -3344.8558    540.47561    33597.993            0            0   -37483.324   -27.439018    1386.2681    17.240228    23.591247    21.541396    8761.2838 
  214500    383.34695   -3305.7695    -2648.726   -3305.7695    479.88464    33700.481            0            0   -37486.135   -26.938055    312.38944    17.346443    23.736591    21.674111     8924.216 
  215000    374.86954    -3348.119   -2705.6054    -3348.119    521.31897    33612.379            0            0   -37481.817   -27.267317    962.93144    17.276339    23.640662    21.586517    8816.4532 
  215500    364.70967   -3444.6882   -2819.5883   -3444.6882    511.72523    33525.403            0            0   -37481.816   -26.986499   -738.71616    17.336057    23.722379    21.661134    8908.1961 
  216000    368.38373   -3405.0621    -2773.665   -3405.0621    567.68173    33515.223            0            0   -37487.967   -26.732105    938.04398    17.390876    23.797393    21.729629    8992.9703 
  216500    368.47279    -3316.926   -2685.3763    -3316.926    479.87632    33684.924            0            0   -37481.726   -25.829046   -1120.5877    17.591237    24.071564    21.979978    9307.3907 
  217000    380.67971    -3368.769    -2716.297    -3368.769    443.53679    33676.533            0            0   -37488.839   -27.306806   -1273.4745    17.268007     23.62926    21.576106    8803.7035 
  217500    375.08335      -3417.6   -2774.7199      -3417.6    558.23105    33514.176            0            0   -37490.007   -27.403795    959.69909    17.247611    23.601351    21.550622    8772.5451 
  218000    376.35287   -3407.4475   -2762.3915   -3407.4475    522.21564    33555.886            0            0   -37485.549   -26.663489   -204.14027    17.405781    23.817788    21.748253    9016.1127 
  218500    360.88361    -3403.874   -2785.3318    -3403.874    518.01064    33562.801            0            0   -37484.686   -26.884561   -11.981711    17.357941    23.752324    21.688477    8941.9731 
  219000     375.7201   -3379.0879   -2735.1165   -3379.0879    468.33118     33636.47            0            0   -37483.889   -27.189429   -711.68849     17.29282    23.663214     21.60711     8841.709 
  219500    374.82821   -3411.5606   -2769.1178   -3411.5606    582.85455    33490.491            0            0   -37484.906   -26.951823    1568.2726    17.343489    23.732549     21.67042    8919.6573 
  220000    367.05995   -3433.5004   -2804.3722   -3433.5004    549.16185    33502.712            0            0   -37485.374   -26.985905    349.09314    17.336184    23.722553    21.661293    8908.3923 
  220500    380.69742   -3342.4679   -2689.9655   -3342.4679    463.84438    33682.124            0            0   -37488.436   -26.845938   -688.24263    17.366261    23.763709    21.698873     8954.838 
  221000    338.75598   -3346.0221    -2765.406   -3346.0221    458.02667    33681.801            0            0    -37485.85   -26.800333   -1421.1686    17.376106    23.777181    21.711174    8970.0761 
  221500    384.17889   -3372.7949   -2714.3254   -3372.7949    486.29025    33624.995            0            0    -37484.08   -26.745175   -842.01656    17.388043    23.793515    21.726089    8988.5754 
  222000    336.95066   -3390.6154   -2813.0935   -3390.6154    505.08293    33590.151            0            0   -37485.849   -27.365036    62.685068     17.25575    23.612488    21.560791    8784.9702 
  222500    366.44207   -3428.1691   -2800.0999   -3428.1691    528.46514    33529.291            0            0   -37485.925    -27.41525    199.79533    17.245208    23.598063     21.54762    8768.8796 
  223000    356.04056   -3360.9889   -2750.7475   -3360.9889    472.11846    33649.439            0            0   -37482.547   -26.936384   -679.88251    17.346802    23.737082    21.674559    8924.7697 
  223500    363.77625    -3425.585    -2802.085    -3425.585    606.26784    33456.201            0            0   -37488.054   -27.220652    2204.6894    17.286206    23.654163    21.598845    8831.5674 
  224000    386.70417   -3464.6084   -2801.8107   -3464.6084    509.20286    33516.089            0            0     -37489.9   -26.674357   -1256.9986    17.403417    23.814553    21.745299    9012.4391 
  224500    350.60864   -3418.8514   -2817.9202   -3418.8514    537.83356    33532.421            0            0   -37489.106   -26.804229    79.150992    17.375264    23.776029    21.710122    8968.7723 
  225000    362.13608   -3398.7208   -2778.0319   -3398.7208    538.89264    33552.546            0            0   -37490.159    -26.99968    632.53508    17.333236    23.718518    21.657608     8903.847 
  225500    384.25799   -3432.5123   -2773.9073   -3432.5123    582.47581    33471.004            0            0   -37485.992   -27.194868    1520.8196    17.291667    23.661636    21.605669    8839.9406 
  226000    371.83737    -3381.427   -2744.1105    -3381.427    505.17275    33597.946            0            0   -37484.545    -26.93433    34.831101    17.347243    23.737685     21.67511    8925.4502 
  226500     358.8998   -3352.1955   -2737.0536   -3352.1955    453.34291    33678.376            0            0   -37483.915    -26.30188   -1580.9846    17.485186    23.926444    21.847468    9140.0698 
  227000    363.37128   -3450.8511   -2828.0452   -3450.8511    458.59835    33580.328            0            0   -37489.778   -27.007358   -1717.4702    17.331593     23.71627    21.655556    8901.3158 
  227500    366.35131   -3461.5952   -2833.6816   -3461.5952    554.94745    33472.043            0            0   -37488.586   -27.167503    492.29261    17.297471    23.669578    21.612921    8848.8449 
  228000    347.63532    -3432.081    -2836.246    -3432.081    483.23165    33567.929            0            0   -37483.242   -27.872159   -842.65258    17.150455    23.468404    21.429227    8625.1309 
  228500    370.41516   -3401.7347   -2766.8558   -3401.7347    484.52781    33600.664            0            0   -37486.926   -26.786453    -1052.435    17.379107    23.781287    21.714923    8974.7241 
  229000    381.30429   -3497.6518   -2844.1093   -3497.6518    591.21227    33399.242            0            0   -37488.106   -27.647703    1348.2147    17.196741    23.531742    21.487061    8695.1535 
  229500    360.70257   -3470.6045   -2852.3726   -3470.6045    506.39792    33515.258            0            0    -37492.26   -26.701952   -945.54885     17.39742    23.806347    21.737806    9003.1253 
  230000    367.55011   -3433.6702   -2803.7019   -3433.6702     568.6874    33483.284            0            0   -37485.641   -26.706428     595.6453    17.396448    23.805017    21.736591    9001.6165 
  230500    365.00231   -3473.9297   -2848.3283   -3473.9297    550.99114    33458.069            0            0    -37482.99   -26.951213     72.37815     17.34362    23.732728    21.670583    8919.8592 
  231000    329.72298   -3439.2597   -2874.1258   -3439.2597    555.65668    33492.427            0            0   -37487.343   -27.172177    607.50087    17.296479    23.668221    21.611682    8847.3229 
  231500    336.72922   -3484.2152   -2907.0728   -3484.2152    507.03479    33500.101            0            0   -37491.351   -27.459582   -1080.2149    17.235923    23.585357    21.536018    8754.7225 
  232000    371.30305   -3434.6676   -2798.2669   -3434.6676    468.90342    33581.006            0            0   -37484.577   -26.634519   -1778.0902     17.41209    23.826421    21.756135    9025.9195 
  232500    362.67694   -3461.8842   -2840.2683   -3461.8842    577.82109    33448.329            0            0   -37488.034   -27.718323    1131.8121    17.182125     23.51174    21.468798    8673.0004 
  233000     351.5732   -3469.7718   -2867.1874   -3469.7718    547.21577    33471.806            0            0   -37488.794   -26.911108   -207.10747    17.352231    23.744511    21.681343    8933.1522 
  233500    370.83292   -3437.5312   -2801.9363   -3437.5312    616.59424    33428.869            0            0   -37482.994   -26.536999    1525.1153    17.433393    23.855571    21.782753    9059.0884 
  234000    353.97185   -3517.4235   -2910.7279   -3517.4235     582.2496      33387.7            0            0   -37487.374    -26.89393    27.773309    17.355925    23.749566    21.685958    8938.8582 
  234500        346.3   -3456.3179   -2862.7716   -3456.3179    518.98351    33513.059            0            0    -37488.36   -27.312752   -529.46735    17.266754    23.627545     21.57454    8801.7869 
  235000    362.33339    -3455.118   -2834.0909    -3455.118    580.32818    33447.106            0            0   -37482.553   -27.090575    733.91663    17.313828    23.691961    21.633359    8873.9726 
  235500     344.5157    -3529.966   -2939.4779    -3529.966    602.80363    33356.914            0            0   -37489.683   -28.061456    1273.5619    17.111803    23.415514    21.380932    8566.9476 
  236000    346.63053   -3534.6811   -2940.5682   -3534.6811    602.17126    33356.629            0            0   -37493.481   -28.009773    1409.7768    17.122322    23.429907    21.394075    8582.7551 
  236500    365.41047   -3558.4756   -2932.1746   -3558.4756    583.80882    33351.527            0            0   -37493.811   -27.276022    350.93943    17.274501    23.638146     21.58422    8813.6393 
  237000     327.5453   -3509.6992   -2948.2977   -3509.6992    574.33062    33403.771            0            0   -37487.801   -27.249676    341.69402    17.280066    23.645762    21.591174    8822.1607 
  237500    364.62319   -3473.1172   -2848.1655   -3473.1172     513.9622    33497.942            0            0   -37485.022   -28.145013    13.907179    17.094853    23.392319    21.359753     8541.514 
  238000    367.68013   -3409.6125   -2779.4213   -3409.6125    500.04031    33576.644            0            0   -37486.297   -26.838039   -999.79826    17.367964     23.76604    21.701002    8957.4734 
  238500    358.49427   -3518.6019    -2904.155   -3518.6019    524.60797    33447.163            0            0   -37490.373   -28.437506    70.400465    17.036041    23.311842    21.286269    8453.6606 
  239000    338.64852   -3427.9255   -2847.4936   -3427.9255    499.22183    33558.874            0            0   -37486.021   -27.933205   -298.36635    17.137952    23.451295    21.413605    8606.2814 
  239500    362.57855   -3464.7718   -2843.3246   -3464.7718    548.65587    33476.676            0            0   -37490.103   -27.182829    175.98554    17.294219    23.665129    21.608858    8843.8557 
  240000    371.42909   -3490.2638   -2853.6471   -3490.2638    529.16747    33467.613            0            0   -37487.044   -26.980876   -606.31703    17.337262    23.724027    21.662639    8910.0527 
  240500    339.50564   -3453.6518   -2871.7507   -3453.6518    501.84621    33525.248            0            0   -37480.746   -26.481013   -1448.0934     17.44567    23.872371    21.798093     9078.241 
  241000    344.51057   -3472.9911   -2882.5118   -3472.9911    529.92311    33481.705            0            0    -37484.62   -27.265064   -495.11348    17.276815    23.641312    21.587111    8817.1816 
  241500    341.14537   -3521.7556   -2937.0441   -3521.7556    556.92605    33408.731            0            0   -37487.413    -27.96641    397.54139    17.131167     23.44201    21.405127    8596.0631 
  242000    348.01283   -3501.7421   -2905.2601   -3501.7421    512.75356    33474.092            0            0   -37488.588   -27.269615   -1112.9911    17.275853    23.639997     21.58591    8815.7102 
  242500    332.24132   -3543.2654   -2973.8151   -3543.2654    604.80062    33343.098            0            0   -37491.164    -27.65039    884.68125    17.196184    23.530979    21.486365    8694.3086 
  243000     334.6849   -3466.5403   -2892.9018   -3466.5403    522.45934     33497.17            0            0    -37486.17   -26.830004   -969.75165    17.369698    23.768413    21.703168    8960.1561 
  243500    329.73202   -3488.2185   -2923.0692   -3488.2185    582.20131    33416.361            0            0   -37486.781   -27.578107    995.68937    17.211195     23.55152    21.505121    8717.0967 
  244000    364.30603   -3488.5447   -2864.1366   -3488.5447    531.83155    33466.817            0            0   -37487.193   -27.276678   -451.68205    17.274362    23.637957    21.584047    8813.4274 
  244500     323.0952   -3423.4539   -2869.6798   -3423.4539     518.0629    33542.502            0            0   -37484.019   -26.972754   -390.93641    17.339001    23.726408    21.664813    8912.7355 
  245000    342.59168   -3457.1426   -2869.9522   -3457.1426    598.42077    33432.934            0            0   -37488.498   -27.475481    1382.0044    17.232598    23.580807    21.531863    8749.6565 
  245500    346.57527   -3562.1149   -2968.0967   -3562.1149    560.40828     33372.76            0            0   -37495.283   -28.199274    110.41523    17.083881    23.377305    21.346044    8525.0785 
  246000    369.24034   -3512.7315   -2879.8662   -3512.7315    543.84138    33433.693            0            0   -37490.266   -27.834948    188.55712    17.158094    23.478857    21.438772    8636.6614 
  246500    345.06082   -3486.9407   -2895.5182   -3486.9407    518.16538    33476.159            0            0   -37481.265    -27.21314   -904.43764    17.287796    23.656339    21.600832    8834.0054 
  247000      324.921   -3493.5765    -2936.673   -3493.5765    513.98331    33480.022            0            0   -37487.582   -28.246418   -256.00642    17.074371    23.364292    21.334162    8510.8499 
  247500    343.09871   -3531.9237   -2943.8643   -3531.9237    569.93724    33386.231            0            0   -37488.092    -27.09138   -210.82034    17.313657    23.691727    21.633145     8873.709 
  248000    327.86846   -3515.9145   -2953.9591   -3515.9145    569.05101    33402.818            0            0   -37487.783   -27.648589    162.73955    17.196558    23.531491    21.486832     8694.875 
  248500    342.19408   -3546.1842   -2959.6753   -3546.1842    522.55142    33422.685            0            0    -37491.42   -27.707382   -942.73263    17.184386    23.514835    21.471623     8676.425 
  249000    334.94854   -3584.3751   -3010.2848   -3584.3751    537.41523    33367.972            0            0   -37489.763   -27.784491   -894.21538    17.168474    23.493061    21.451741    8652.3456 
  249500    352.20711   -3549.7995   -2946.1285   -3549.7995    565.16166    33376.398            0            0   -37491.359   -27.891925     8.654216    17.146403    23.462859    21.424164    8619.0187 
  250000    333.93554   -3531.7964   -2959.4423   -3531.7964    577.14426    33382.334            0            0   -37491.274   -28.052793    810.46898    17.113565    23.417924    21.383133    8569.5932 
  250500    321.56235   -3557.2211   -3006.0742   -3557.2211     571.0668    33359.717            0            0   -37488.005   -27.600489    -212.5653    17.206542    23.545152    21.499306    8710.0278 
  251000    311.44809    -3565.015   -3031.2036    -3565.015    632.43176    33289.105            0            0   -37486.552   -27.144154     1079.193    17.302429    23.676363    21.619116    8856.4567 
  251500    328.05788   -3504.8882   -2942.6082   -3504.8882    541.96833    33439.988            0            0   -37486.845   -27.878224    98.486094    17.149211    23.466702    21.427673    8623.2547 
  252000    331.78891   -3519.4854   -2950.8106   -3519.4854     577.2148    33391.142            0            0   -37487.842   -28.136976    943.53464     17.09648    23.394546    21.361786    8543.9537 
  252500    324.11529    -3607.593   -3052.0705    -3607.593    535.53943    33350.704            0            0   -37493.836   -28.492772   -686.54684    17.025019     23.29676    21.272497    8437.2633 
  253000    332.47518   -3495.7851    -2925.934   -3495.7851    572.70503    33421.714            0            0   -37490.204   -27.933784    917.59454    17.137834    23.451133    21.413457     8606.103 
  253500    353.19545   -3578.2921   -2972.9271   -3578.2921    586.31131    33323.512            0            0   -37488.115   -27.545064    176.66505    17.218075    23.560934    21.513717    8727.5535 
  254000    330.16489   -3576.5615   -3010.6702   -3576.5615    582.72227     33333.46            0            0   -37492.744   -27.856318    284.21032    17.153705    23.472852    21.433288    8630.0359 
  254500    320.94564   -3564.7642   -3014.6743   -3564.7642     568.7661    33355.968            0            0   -37489.498   -27.296908   -550.76913    17.270094    23.632116    21.578714    8806.8958 
  255000    333.42125   -3608.2294   -3036.7568   -3608.2294    561.94948    33322.321            0            0     -37492.5   -27.822113   -602.68217    17.160732    23.482467    21.442068    8640.6459 
  255500    312.87333   -3604.2039   -3067.9497   -3604.2039     628.2717    33259.787            0            0   -37492.263   -27.219486     188.2959    17.286452    23.654501    21.599153    8831.9456 
  256000    316.43784     -3551.88   -3009.5164     -3551.88    556.63884    33381.125            0            0   -37489.644   -27.427621   -605.99907    17.242615    23.594515     21.54438    8764.9244 
  256500    309.93391   -3615.9809   -3084.7647   -3615.9809    663.13825    33214.928            0            0   -37494.048   -27.308021    1062.3535    17.267751     23.62891    21.575786    8803.3119 
  257000     330.6635   -3608.7681   -3042.0222   -3608.7681    610.54935    33270.448            0            0   -37489.766   -27.816077     600.6904    17.161973    23.484165    21.443619    8642.5206 
  257500    347.12871   -3629.2473   -3034.2806   -3629.2473    609.60836      33255.2            0            0   -37494.056   -27.468174    90.338255    17.234125    23.582897    21.533772     8751.984 
  258000    322.34729   -3544.9733   -2992.4811   -3544.9733     604.4996    33341.611            0            0   -37491.084   -27.220842    581.53395    17.286165    23.654108    21.598795    8831.5058 
  258500    319.70253   -3608.3547   -3060.3955   -3608.3547    600.22073    33282.947            0            0   -37491.523   -27.222806    -139.4671     17.28575    23.653539    21.598275    8830.8685 
  259000    318.96424   -3546.2797   -2999.5859   -3546.2797    605.47628    33339.949            0            0   -37491.705   -27.722762    1094.7695    17.181207    23.510485    21.467652    8671.6115 
  259500    339.47494   -3642.4273   -3060.5789   -3642.4273    612.88657    33238.629            0            0   -37493.942   -28.005556    354.43267    17.123181    23.431083    21.395148    8584.0475 
  260000    323.45391   -3666.4756   -3112.0867   -3666.4756    639.33502    33184.269            0            0   -37490.079   -27.994664    996.96505    17.125401    23.434121    21.397923    8587.3873 
  260500     331.7317    -3562.124   -2993.5472    -3562.124     590.5448    33336.156            0            0   -37488.825   -27.199337   -31.649902     17.29072     23.66034    21.604486    8838.4884 
  261000    314.85231   -3580.8372   -3041.1911   -3580.8372    596.21297    33314.118            0            0   -37491.168   -27.357724    200.86287    17.257287    23.614591    21.562712     8787.318 
  261500    315.03158    -3626.506   -3086.5526    -3626.506    584.79843    33280.705            0            0    -37492.01   -28.009005   -86.547261    17.122478    23.430121     21.39427    8582.9905 
  262000     319.7817   -3643.2464   -3095.1515   -3643.2464    687.80474    33163.309            0            0    -37494.36   -27.907024    2130.4684     17.14331    23.458627    21.420299    8614.3554 
  262500    320.58687   -3562.5903   -3013.1154   -3562.5903     580.1486      33345.6            0            0   -37488.339   -27.561892   -285.75143     17.21457    23.556138    21.509337    8722.2248 
  263000    320.00154   -3611.3844   -3062.9127   -3611.3844    617.50163     33262.39            0            0   -37491.276   -28.185645    925.72817    17.086634    23.381073    21.349484    8529.2006 
  263500     330.2986   -3622.8795    -3056.759   -3622.8795    559.25673    33308.584            0            0    -37490.72   -27.469167     -1135.49    17.233918    23.582613    21.533512    8751.6678 
  264000    310.37326   -3643.3691      -3111.4   -3643.3691    591.01595    33256.572            0            0   -37490.957   -28.361483    191.81217    17.051249    23.332653    21.305271    8476.3205 
  264500    302.82234   -3608.3668   -3089.3397   -3608.3668    578.19192    33304.753            0            0   -37491.312   -27.570724   -672.64117    17.212731    23.553622     21.50704    8719.4308 
  265000     308.5265   -3629.0819    -3100.278   -3629.0819    613.90554    33249.929            0            0   -37492.916   -27.702773    284.75371    17.185339    23.516139    21.472814    8677.8687 
  265500    331.56184   -3650.6119   -3082.3263   -3650.6119    610.59784    33230.224            0            0   -37491.434   -27.814857    172.84239    17.162224    23.484509    21.443932    8642.8999 
  266000    304.62782   -3652.7718   -3130.6502   -3652.7718    616.63246    33220.442            0            0   -37489.846   -27.263041   -108.95405    17.277242    23.641897    21.587645    8817.8361 
  266500    305.92483   -3616.5764   -3092.2317   -3616.5764    632.88994    33240.837            0            0   -37490.304   -27.796263    835.02474     17.16605    23.489744    21.448713    8648.6815 
  267000    302.52993   -3648.0156   -3129.4896   -3648.0156     595.1368    33247.155            0            0   -37490.308   -27.437653   -594.80446    17.240513    23.591639    21.541753    8761.7195 
  267500    304.20359   -3607.0299   -3085.6354   -3607.0299    625.92589    33256.274            0            0    -37489.23   -27.452597    662.68888    17.237384    23.587357    21.537844    8756.9501 
  268000    319.51694   -3656.2038   -3108.5627   -3656.2038    691.91064    33143.063            0            0   -37491.177   -27.568643    1858.6523    17.213164    23.554215    21.507581    8720.0892 
  268500    328.40375   -3642.8275   -3079.9547   -3642.8275    671.44789    33179.172            0            0   -37493.447   -28.058471    1902.1965     17.11241    23.416344     21.38169    8567.8589 
  269000    300.12185   -3655.5872   -3141.1887   -3655.5872    674.58777    33162.194            0            0   -37492.369   -27.348283    1100.9137    17.259273    23.617309    21.565193    8790.3515 
  269500    293.99334   -3719.6552   -3215.7607   -3719.6552    647.07882    33129.491            0            0   -37496.225   -27.902706    185.51869    17.144194    23.459837    21.421404    8615.6883 
  270000    303.27602   -3655.2784   -3135.4736   -3655.2784    586.65203    33251.387            0            0   -37493.317   -27.629754   -945.04918    17.200464    23.536836    21.491713     8700.802 
  270500    298.68035   -3664.9447   -3153.0168   -3664.9447     590.5975    33237.461            0            0   -37493.003   -28.076526   -572.20001    17.108741    23.411324    21.377106    8562.3492 
  271000    287.88864   -3668.8332    -3175.402   -3668.8332    616.98072    33208.398            0            0   -37494.212   -27.604596   -475.49918    17.205688    23.543985     21.49824    8708.7319 
  271500    306.55259   -3646.5095   -3121.0888   -3646.5095    634.99395    33212.799            0            0   -37494.303   -27.946374    496.79497     17.13526    23.447611    21.410241     8602.226 
  272000    298.09488   -3666.6417   -3155.7172   -3666.6417    589.70921    33235.345            0            0   -37491.696   -28.647296   -74.669073    16.994353    23.254797     21.23418    8391.7528 
  272500    313.66355   -3713.0293   -3175.4207   -3713.0293    625.46721    33153.324            0            0    -37491.82   -28.143476   -170.23019    17.095164    23.392745    21.360142    8541.9806 
  273000    300.82827   -3710.6726   -3195.0633   -3710.6726    597.57241    33184.758            0            0   -37493.003   -28.214935   -774.87525     17.08072    23.372979    21.342094    8520.3466 
  273500    297.29683   -3642.5226   -3132.9661   -3642.5226    611.11761    33236.997            0            0   -37490.637   -27.675149   -167.81485    17.191055     23.52396    21.479956    8686.5305 
  274000    300.42468   -3664.3276     -3149.41   -3664.3276    668.45203    33156.888            0            0   -37489.667   -28.600101    1796.0606    17.003696    23.267581    21.245854    8405.6005 
  274500    298.25745   -3696.5822   -3185.3792   -3696.5822    599.99026    33195.064            0            0   -37491.637   -27.735539   -1051.2253    17.178569    23.506874    21.464355    8667.6167 
  275000    300.61603   -3690.7251   -3175.4795   -3690.7251    626.73836    33175.548            0            0   -37493.011   -27.901209    320.00932    17.144501    23.460256    21.421787    8616.1506 
  275500    307.27381   -3669.9783   -3143.3216   -3669.9783    627.79701    33193.478            0            0   -37491.254   -28.107877    441.38291    17.102378    23.402616    21.369155    8552.7992 
  276000    297.34939   -3611.7853   -3102.1387   -3611.7853    580.14601    33301.299            0            0    -37493.23   -27.612147   -777.99903     17.20412    23.541838     21.49628    8706.3502 
  276500    317.30804   -3690.6597   -3146.8046   -3690.6597     680.1028    33121.239            0            0   -37492.002   -27.453604    863.30833    17.237174    23.587069    21.537581     8756.629 
  277000    296.61792   -3677.2295   -3168.8366   -3677.2295    642.28048    33176.979            0            0   -37496.489   -27.978944    463.95439    17.128608    23.438509     21.40193    8592.2122 
  277500    303.13849   -3709.0645   -3189.4955   -3709.0645    640.88954     33147.91            0            0   -37497.864   -28.557143    630.36852    17.012218    23.279242    21.256501    8418.2449 
  278000    296.69584   -3699.0692   -3190.5427   -3699.0692    614.34558    33180.507            0            0   -37493.922    -27.37201   -1087.5715    17.254284    23.610483     21.55896    8782.7319 
  278500    301.38844   -3671.8101   -3155.2406   -3671.8101    621.06337    33199.881            0            0   -37492.754   -27.713269   -163.91541    17.183169    23.513169    21.470103    8674.5819 
  279000    286.21492   -3737.4969   -3246.9343   -3737.4969    662.94645    33092.354            0            0   -37492.797   -28.144539    604.83824    17.094949     23.39245    21.359873    8541.6578 
  279500    300.55051   -3755.8425   -3240.7092   -3755.8425    635.65604    33102.806            0            0   -37494.304   -28.046213   -317.65255    17.114903    23.419755    21.384805    8571.6037 
  280000    287.42677   -3716.3806   -3223.7409   -3716.3806    580.55054    33193.392            0            0   -37490.323   -27.899372   -1773.5809    17.144877    23.460771    21.422257    8616.7182 
  280500    299.49285   -3744.7975    -3231.477   -3744.7975    649.60565     33098.98            0            0   -37493.383   -27.753014   -229.02976    17.174962     23.50194    21.459849    8662.1591 
  281000     287.4929   -3712.5712   -3219.8182   -3712.5712    700.40489    33081.281            0            0   -37494.257     -28.4447    1753.9169    17.034605    23.309877    21.284474    8451.5226 
  281500    299.32079   -3723.4103   -3210.3847   -3723.4103    690.45705    33077.215            0            0   -37491.083   -27.878745    1386.2685    17.149104    23.466556    21.427539    8623.0936 
  282000    297.66853   -3712.6005   -3202.4069   -3712.6005    691.53405    33087.971            0            0   -37492.106    -27.58378    1039.5631    17.210015    23.549905    21.503646    8715.3038 
  282500    300.89653   -3763.9507   -3248.2244   -3763.9507    701.00931    33032.384            0            0   -37497.344   -27.503798     819.6721    17.226682    23.572711    21.524471    8740.6483 
  283000    276.10149   -3722.1357   -3248.9072   -3722.1357    596.41859    33175.042            0            0   -37493.597   -27.108206   -1906.2902    17.310074    23.686824    21.628668    8868.2013 
  283500     291.9042   -3753.4006   -3253.0868   -3753.4006    639.53028    33099.801            0            0   -37492.732    -27.37415   -904.16527    17.253835    23.609867    21.558398    8782.0452 
  284000    273.60221   -3756.3261   -3287.3813   -3756.3261    646.62387    33088.649            0            0   -37491.599   -27.290438   -849.00735    17.271458    23.633983    21.580419    8808.9838 
  284500    284.61621   -3766.1986   -3278.3762   -3766.1986    614.07526    33113.961            0            0   -37494.234   -27.036148   -1819.2527    17.325439    23.707849    21.647866    8891.8369 
  285000    289.75841   -3731.9995   -3235.3635   -3731.9995    629.22235     33133.85            0            0   -37495.072   -27.473091   -740.99058    17.233097     23.58149    21.532487    8750.4177 
  285500    270.43564   -3750.2193   -3286.7019   -3750.2193    663.76413    33081.096            0            0    -37495.08   -27.500828   -259.34854    17.227302     23.57356    21.525246    8741.5922 
  286000     303.3497   -3721.9107   -3201.9797   -3721.9107    609.32117    33158.757            0            0   -37489.989   -27.145494   -1309.1847    17.302144    23.675973     21.61876    8856.0194 
  286500    289.10278   -3784.5419   -3289.0296   -3784.5419    624.08323    33083.246            0            0   -37491.871   -27.679399   -1499.0305    17.190175    23.522756    21.478856    8685.1967 
  287000    286.18742   -3794.6559   -3304.1405   -3794.6559    583.25008    33117.245            0            0   -37495.151   -27.543872   -2601.7353    17.218323    23.561274    21.514027    8727.9313 
  287500     284.7877   -3769.3549   -3281.2386   -3769.3549    660.18482    33064.913            0            0   -37494.452   -27.981155   -24.199704    17.128157    23.437892    21.401366    8591.5333 
  288000    279.37015   -3765.9412   -3287.1103   -3765.9412    680.43747    33042.802            0            0    -37489.18   -28.265884    700.49095    17.070451    23.358928    21.329263    8504.9888 
  288500    291.24573   -3768.4571   -3269.2719   -3768.4571    684.24049    33038.903            0            0     -37491.6   -27.866094    437.48903    17.151699    23.470107    21.430781    8627.0083 
  289000    298.26464   -3775.6508   -3264.4354   -3775.6508    619.18434    33101.976            0            0   -37496.811   -27.723351   -1154.2994    17.181086    23.510319      21.4675    8671.4272 
  289500    270.40366   -3742.1001   -3278.6375   -3742.1001    647.48966    33105.405            0            0   -37494.995   -28.043547   -19.362748    17.115445    23.420497    21.385483    8572.4186 
  290000    267.23618    -3741.287   -3283.2533    -3741.287    632.74838    33118.182            0            0   -37492.217   -28.020263   -642.32013    17.120185    23.426983    21.391405    8579.5421 
  290500    281.58693   -3740.9475   -3258.3172   -3740.9475    608.83851    33144.554            0            0    -37494.34   -27.539458   -1461.9229    17.219243    23.562532    21.515176    8729.3303 
  291000    281.29512   -3740.6417   -3258.5114   -3740.6417    633.54696    33123.508            0            0   -37497.697   -28.022277   -578.50969    17.119774    23.426421    21.390892    8578.9253 
  291500    266.09911   -3760.4757    -3304.391   -3760.4757    619.95119    33114.885            0            0   -37495.312   -27.840119    -1276.997    17.157032    23.477403    21.437444    8635.0572 
  292000    274.92985   -3792.1423    -3320.922   -3792.1423    686.10948    33015.137            0            0   -37493.388    -28.50622    611.46786    17.022342    23.293096    21.269151    8433.2832 
  292500    279.62058   -3759.2432   -3279.9831   -3759.2432    694.04163    33041.991            0            0   -37495.276   -28.268013    817.04912    17.070022    23.358341    21.328727    8504.3481 
  293000     275.1843   -3746.7779   -3275.1215   -3746.7779    656.33252    33090.273            0            0   -37493.384   -27.878442   -416.85545    17.149166    23.466641    21.427617     8623.187 
  293500    277.01191   -3799.5855   -3324.7965   -3799.5855    639.40614    33055.724            0            0   -37494.715   -28.120863   -952.14483    17.099745    23.399013    21.365866    8548.8495 
  294000    282.15541   -3816.3367    -3332.732   -3816.3367    714.23402    32965.816            0            0   -37496.386   -28.830946    1142.3468    16.958192    23.205315    21.188997    8338.2982 
  294500    264.33406   -3827.5284   -3374.4688   -3827.5284    651.85318    33016.619            0            0       -37496    -28.15501   -1191.5019    17.092829     23.38955    21.357224    8538.4812 
  295000    284.14357   -3812.8913   -3325.8789   -3812.8913    626.98712     33050.95            0            0   -37490.829   -27.646025   -1966.7624    17.197089    23.532218    21.487496    8695.6814 
  295500    266.88578   -3816.5471    -3359.114   -3816.5471     687.0911    32992.901            0            0   -37496.539   -27.870624   -193.97007     17.15077    23.468835     21.42962    8625.6061 
  296000    281.94212   -3827.4375   -3344.1984   -3827.4375    724.15043    32942.988            0            0   -37494.576   -27.611094    323.45814    17.204338    23.542137    21.496553    8706.6824 
  296500    279.18249   -3777.0247   -3298.5155   -3777.0247    717.99512    32998.184            0            0   -37493.204   -27.755564    848.40703    17.174436     23.50122    21.459191    8661.3631 
  297000    281.84285   -3778.8572   -3295.7882   -3778.8572    587.13506    33130.713            0            0   -37496.706   -27.321169   -2505.8529     17.26498    23.625119    21.572325    8799.0753 
  297500    269.05633   -3778.3213   -3317.1679   -3778.3213    644.40955    33072.789            0            0    -37495.52   -27.370607   -1303.3094    17.254579    23.610886    21.559328     8783.182 
  298000    273.12218   -3779.2295   -3311.1074   -3779.2295    655.71503    33062.756            0            0   -37497.701   -27.554676   -871.56718    17.216072    23.558194    21.511215    8724.5091 
  298500    261.46508   -3819.1897   -3371.0475   -3819.1897    661.85007    33013.157            0            0   -37494.197   -27.627351   -1127.4215    17.200963    23.537519    21.492336    8701.5589 
  299000    262.45985   -3834.9008   -3385.0536   -3834.9008    693.63071    32964.139            0            0   -37492.671   -27.115117   -936.64802    17.308603    23.684811     21.62683    8865.9407 
  299500    271.79875   -3835.1375   -3369.2837   -3835.1375    731.49641    32927.747            0            0   -37494.381   -26.984024     22.46147    17.336587    23.723105    21.661796    8909.0132 
  300000    279.52339   -3831.4712   -3352.3777   -3831.4712    638.14834    33026.895            0            0   -37496.515   -27.328086   -1927.4273    17.263523    23.623125    21.570504     8796.848 
Loop time of 171.561 on 8 procs for 100000 steps with 864 atoms

Performance: 100.722 ns/day, 0.238 hours/ns, 582.885 timesteps/s
99.7% CPU use with 8 MPI tasks x 1 OpenMP threads

MPI task timing breakdown:
Section |  min time  |  avg time  |  max time  |%varavg| %total
---------------------------------------------------------------
Pair    | 83.949     | 95.975     | 109.3      |  89.4 | 55.94
Bond    | 0.022755   | 0.025395   | 0.02982    |   1.2 |  0.01
Kspace  | 31.426     | 45.094     | 57.667     | 131.8 | 26.28
Neigh   | 7.0641     | 7.1581     | 7.2871     |   3.1 |  4.17
Comm    | 7.8678     | 8.779      | 9.7523     |  21.4 |  5.12
Output  | 0.31615    | 0.31643    | 0.31744    |   0.1 |  0.18
Modify  | 12.391     | 13.656     | 14.562     |  23.2 |  7.96
Other   |            | 0.5564     |            |       |  0.32

Nlocal:    108 ave 114 max 100 min
Histogram: 1 0 2 0 0 1 0 1 2 1
Nghost:    3079.12 ave 3098 max 3050 min
Histogram: 1 0 0 0 2 0 2 1 0 2
Neighs:    28011.1 ave 31703 max 23776 min
Histogram: 2 0 0 0 1 1 1 1 1 1

Total # of neighbors = 224089
Ave neighs/atom = 259.362
Ave special neighs/atom = 2
Neighbor list builds = 8002
Dangerous builds = 1695

unfix		1
unfix		2
unfix		3

include 	in.dump
dump            myDump all atom ${out_freq2} dump.water
dump            myDump all atom 500 dump.water
dump            myDump2 all dcd ${out_freq2} dump.dcd
dump            myDump2 all dcd 500 dump.dcd

fix 		1 all shake 1e-6 200 0 b 1 a 1
  0 = # of size 2 clusters
  0 = # of size 3 clusters
  0 = # of size 4 clusters
  288 = # of frozen angles
  find clusters CPU = 0.000263824 secs
fix             2 all nph iso ${pressure} ${pressure} ${pressureDamp}
fix             2 all nph iso 1 ${pressure} ${pressureDamp}
fix             2 all nph iso 1 1 ${pressureDamp}
fix             2 all nph iso 1 1 1000
fix             3 all temp/csvr ${temperature} ${temperature} ${tempDamp} ${seed}
fix             3 all temp/csvr 270 ${temperature} ${tempDamp} ${seed}
fix             3 all temp/csvr 270 270 ${tempDamp} ${seed}
fix             3 all temp/csvr 270 270 100 ${seed}
fix             3 all temp/csvr 270 270 100 745821

run             500000
PPPM initialization ...
  extracting TIP4P info from pair style
  using 12-bit tables for long-range coulomb (src/kspace.cpp:323)
  G vector (1/distance) = 0.334369
  grid = 15 18 16
  stencil order = 5
  estimated absolute RMS force accuracy = 0.0217934
  estimated relative force accuracy = 6.56301e-05
  using double precision FFTW3
  3d grid and FFT values/proc = 3600 576
Per MPI rank memory allocation (min/avg/max) = 9.526 | 9.528 | 9.53 Mbytes
Step Temp PotEng TotEng E_pair E_vdwl E_coul E_bond E_angle E_long E_tail Press Lx Ly Lz Volume 
  300000    279.52339   -3831.4568   -3352.3633   -3831.4568    638.14834    33155.631            0            0   -37625.236   -27.328086    -1998.722    17.263523    23.623125    21.570504     8796.848 
  300500    264.92045   -3829.1747   -3375.1102   -3829.1747    742.27328    33053.012            0            0    -37624.46   -27.668348    909.24311    17.192463    23.525888    21.481716    8688.6657 
  301000    281.25556   -3825.7334    -3343.671   -3825.7334     740.2505    33054.848            0            0   -37620.832   -27.333339    562.44848    17.262418    23.621612    21.569122    8795.1576 
  301500    277.95224   -3845.0334   -3368.6328   -3845.0334    795.20142    32984.364            0            0   -37624.598   -27.942063    2170.8821    17.136141    23.448817    21.411342    8603.5532 
  302000    262.67469   -3849.4622   -3399.2468   -3849.4622    706.00318     33068.75            0            0   -37624.215   -27.920351   -220.02081    17.140582    23.454894     21.41689    8610.2435 
  302500    274.93237   -3832.0477   -3360.8231   -3832.0477    727.23309    33064.323            0            0   -37623.604   -28.523197    1027.8235    17.018964    23.288474    21.264931    8428.2635 
  303000    271.43309   -3832.8888   -3367.6618   -3832.8888    727.11824    33063.602            0            0   -37623.609   -28.185672    723.40226    17.086629    23.381065    21.349477    8529.1925 
  303500    266.63137   -3852.4911    -3395.494   -3852.4911    739.88985    33032.463            0            0   -37624.844   -28.527366    1082.7171    17.018135    23.287339    21.263895    8427.0319 
  304000    281.58561   -3836.4502   -3353.8221   -3836.4502    714.23109    33073.991            0            0   -37624.672   -28.359542    770.48486    17.051638    23.333185    21.305757    8476.9007 
  304500     271.6894   -3840.9268   -3375.2604   -3840.9268     716.9315    33066.763            0            0   -37624.621   -28.389876    853.33429    17.045563    23.324872    21.298166    8467.8434 
  305000     268.3912    -3840.849   -3380.8357    -3840.849    721.65421    33059.175            0            0   -37621.678   -27.935677    212.68285    17.137447    23.450604    21.412973    8605.5198 
  305500    259.50999   -3853.5957   -3408.8045   -3853.5957    687.97136    33081.485            0            0   -37623.053   -28.140386   -503.92275     17.09579    23.393601    21.360923    8542.9184 
  306000    281.19324    -3850.553   -3368.5975    -3850.553    744.68898    33027.138            0            0    -37622.38   -28.097456    984.42713    17.104492    23.405509    21.371797    8555.9711 
  306500     267.5479   -3846.8972   -3388.3293   -3846.8972    692.74305    33086.984            0            0   -37626.624   -27.419851   -748.35017    17.244244    23.596743    21.546414     8767.408 
  307000    292.31797   -3861.3258   -3360.3028   -3861.3258    766.79014    32993.827            0            0   -37621.943   -27.648933    1130.3083    17.196486    23.531393    21.486743    8694.7668 
  307500    282.74958   -3858.9592   -3374.3361   -3858.9592    743.63052    33024.216            0            0   -37626.806   -27.358045    231.51174     17.25722    23.614499    21.562628    8787.2151 
  308000    285.04943   -3889.5025   -3400.9376   -3889.5025    782.28022    32955.701            0            0   -37627.484   -27.820638    1328.4339    17.161035    23.482882    21.442447    8641.1038 
  308500     280.0217   -3849.5264   -3369.5788   -3849.5264    704.66478    33068.236            0            0   -37622.427   -27.396714   -441.84881    17.249097    23.603384    21.552478    8774.8123 
  309000    269.25341    -3848.209   -3386.7178    -3848.209    752.60487      33025.3            0            0   -37626.114   -28.056144    1303.9146    17.112883    23.416992    21.382282    8568.5697 
  309500    269.07589   -3817.9304   -3356.7436   -3817.9304    714.42042     33090.04            0            0   -37622.391   -27.534803    206.97755    17.220213     23.56386    21.516389    8730.8059 
  310000    276.17321   -3853.0393   -3379.6878   -3853.0393    816.62822    32954.696            0            0   -37624.364    -27.82409    2535.0101    17.160326    23.481911     21.44156    8640.0318 
  310500    281.97714   -3846.5424   -3363.2433   -3846.5424    751.45029     33024.53            0            0   -37622.523    -27.16647    714.84592     17.29769    23.669878    21.613195    8849.1814 
  311000    275.53846   -3801.0189   -3328.7554   -3801.0189     682.3527    33137.377            0            0   -37620.749   -27.140967   -601.91204    17.303106     23.67729    21.619962    8857.4965 
  311500    258.36794   -3834.8656   -3392.0318   -3834.8656    701.95716    33090.232            0            0   -37627.055   -27.375523   -662.96616    17.253546    23.609473    21.558038    8781.6049 
  312000    253.44706   -3863.0754   -3428.6758   -3863.0754    721.02748    33039.168            0            0   -37623.271   -27.694475   -250.20116    17.187055    23.518487    21.474958    8680.4687 
  312500    274.70913    -3837.531   -3366.6889    -3837.531    718.84284    33068.221            0            0   -37624.594   -28.022941    538.01093    17.119639    23.426236    21.390723     8578.722 
  313000    252.67165   -3857.2864   -3424.2158   -3857.2864    734.29848    33035.298            0            0   -37626.883   -27.775262    469.18388    17.170375    23.495663    21.454117    8655.2206 
  313500    254.80387   -3834.4794   -3397.7543   -3834.4794    683.03105    33105.775            0            0   -37623.285   -27.425661   -878.47878    17.243026    23.595077    21.544893    8765.5507 
  314000    269.45834   -3834.2265   -3372.3841   -3834.2265    727.15683    33061.667            0            0    -37623.05   -27.807694    531.49964    17.163698    23.486525    21.445773    8645.1261 
  314500    277.97972   -3849.1858   -3372.7381   -3849.1858    742.19727    33035.439            0            0   -37626.822   -27.914447     817.0351     17.14179    23.456547      21.4184    8612.0645 
  315000    264.59147   -3832.2162   -3378.7155   -3832.2162    694.52768    33098.639            0            0   -37625.383   -27.569168   -212.83645    17.213055    23.554065    21.507445     8719.923 
  315500    270.05524   -3897.2875   -3434.4221   -3897.2875     767.5948    32959.324            0            0   -37624.206   -27.504805    730.72945    17.226471    23.572423    21.524208    8740.3281 
  316000    269.23861   -3861.1943   -3399.7286   -3861.1943    736.36659    33027.326            0            0   -37624.887   -27.174001   -92.958603    17.296092    23.667691    21.611198    8846.7289 
  316500    272.65163   -3823.6834   -3356.3678   -3823.6834    772.23133    33027.573            0            0   -37623.488   -27.199024    1127.2114    17.290786    23.660431    21.604568    8838.5899 
  317000     275.9823   -3857.4122    -3384.388   -3857.4122    690.03845    33074.901            0            0   -37622.352   -26.961453   -1249.7133    17.341424    23.729723    21.667839    8916.4713 
  317500    268.69695   -3876.3702   -3415.8328   -3876.3702     770.0429    32977.601            0            0   -37624.014   -27.563647    897.63156    17.214204    23.555638    21.508881    8721.6697 
  318000    269.43558   -3861.9236   -3400.1202   -3861.9236    665.79639    33095.774            0            0   -37623.494   -27.742394   -1460.9027    17.177154    23.504938    21.462587     8665.475 
  318500    246.41319   -3864.2207   -3441.8769   -3864.2207    738.67171    33019.916            0            0   -37622.808   -27.617168    398.66651    17.203077    23.540411    21.494977    8704.7675 
  319000    277.69605   -3834.6754   -3358.7138   -3834.6754    728.39003    33060.217            0            0   -37623.283   -27.273119     134.8922    17.275114    23.638985    21.584986    8814.5776 
  319500     260.5311   -3813.7334   -3367.1921   -3813.7334    634.04131    33178.112            0            0   -37625.887   -26.658909   -2347.7637    17.406778    23.819152    21.749498    9017.6616 
  320000    258.36994   -3861.7829   -3418.9456   -3861.7829    744.80027    33016.821            0            0   -37623.404   -27.340063    302.54302    17.261002    23.619675    21.567354    8792.9945 
  320500    289.53475   -3860.7151   -3364.4624   -3860.7151    708.00679    33056.381            0            0   -37625.103   -27.174063   -785.85544    17.296079    23.667673    21.611182    8846.7088 
  321000    264.07397   -3867.3622   -3414.7485   -3867.3622    719.58461     33036.72            0            0   -37623.667   -27.581819   -411.21856    17.210423    23.550463    21.504156    8715.9234 
  321500    270.42456   -3807.6447   -3344.1462   -3807.6447    640.42719    33177.396            0            0   -37625.468   -27.578462   -1600.2722    17.211121    23.551419    21.505029    8716.9843 
  322000    252.45129   -3863.9004   -3431.2075   -3863.9004    709.95301    33051.438            0            0   -37625.291   -27.928953    -440.8879    17.138822    23.452485    21.414691    8607.5917 
  322500    271.48661   -3862.3178   -3396.9991   -3862.3178    728.54343    33031.881            0            0   -37622.742   -27.983332    382.53834    17.127713    23.437284    21.400811    8590.8649 
  323000    276.77215   -3868.3575   -3393.9795   -3868.3575     688.0623    33067.579            0            0   -37623.999   -27.418339   -1050.7487    17.244561    23.597177    21.546811    8767.8916 
  323500    268.66787   -3874.1159   -3413.6283   -3874.1159    714.94928    33035.132            0            0   -37624.197     -28.0988   -135.10823    17.104219    23.405136    21.371456     8555.562 
  324000    261.23093   -3864.6822   -3416.9413   -3864.6822    761.69848     32999.35            0            0   -37625.731   -27.981206     918.3557    17.128146    23.437878    21.401353    8591.5174 
  324500    264.33214   -3844.9794   -3391.9232   -3844.9794    660.89999      33117.2            0            0   -37623.079   -28.119674   -1061.6864    17.099986    23.399343    21.366167     8549.211 
  325000    271.05304   -3835.5441   -3370.9685   -3835.5441    752.02341    33037.764            0            0   -37625.331   -27.864157    1127.5312    17.152096     23.47065    21.431278     8627.608 
  325500    268.84825    -3818.971   -3358.1743    -3818.971    669.80959    33134.379            0            0    -37623.16   -28.074226   -765.34236    17.109208    23.411963     21.37769    8563.0509 
  326000    291.31416     -3871.65   -3372.3475     -3871.65     774.5078    32978.474            0            0   -37624.632    -28.23458    1769.1592    17.076757    23.367557    21.337143    8514.4181 
  326500    278.88118   -3848.0524   -3370.0596   -3848.0524    680.74372    33093.992            0            0   -37622.788   -27.826141   -507.18789    17.159904    23.481334    21.441033    8639.3949 
  327000    277.39083   -3897.4585   -3422.0201   -3897.4585    717.54485    33011.492            0            0   -37626.495   -27.971977   -487.31199     17.13003    23.440455    21.403706    8594.3523 
  327500    275.89933   -3883.0686   -3410.1866   -3883.0686    703.65049    33039.319            0            0   -37626.038   -28.057891   -451.99059    17.112528    23.416505    21.381838     8568.036 
  328000    255.12916   -3879.2939   -3442.0113   -3879.2939    700.80793    33045.186            0            0   -37625.288   -27.969394   -762.74537    17.130557    23.441177    21.404365     8595.146 
  328500    273.92832    -3842.847   -3373.3432    -3842.847    714.08776    33065.739            0            0   -37622.673   -27.782415    -51.89017    17.168902    23.493646    21.452276    8652.9923 
  329000    279.87658   -3876.6184   -3396.9195   -3876.6184    706.61883     33037.47            0            0   -37620.708   -27.914334   -521.03666    17.141813    23.456579    21.418429    8612.0996 
  329500    254.96295   -3855.2982   -3418.3005   -3855.2982    781.68412    32988.193            0            0   -37625.176   -28.023095    1499.3262    17.119608    23.426193    21.390684    8578.6748 
  330000    276.20811   -3851.6727   -3378.2615   -3851.6727    743.04552    33028.971            0            0   -37623.689   -27.484399    418.82449    17.230733    23.578256    21.529534    8746.8174 
  330500    280.03057   -3913.1288    -3433.166   -3913.1288    736.15998    32974.615            0            0   -37623.904    -27.66967   -356.92587    17.192189    23.525513    21.481373    8688.2504 
  331000    259.29469   -3890.6185   -3446.1963   -3890.6185    727.72422    33005.859            0            0   -37624.202   -27.663397   -337.29802    17.193489    23.527291    21.482997    8690.2208 
  331500    255.16491   -3895.7192   -3458.3752   -3895.7192    740.90782    32989.658            0            0   -37626.285   -27.736587   -24.431047    17.178352    23.506578    21.464084    8667.2892 
  332000    268.37104   -3859.0119   -3399.0331   -3859.0119    735.35779    33027.802            0            0   -37622.172   -27.735834    224.39135    17.178508    23.506791    21.464279    8667.5246 
  332500    273.46118   -3874.2569   -3405.5538   -3874.2569    692.56561     33055.79            0            0   -37622.613   -27.478653   -1083.2732    17.231934    23.579899    21.531034    8748.6466 
  333000    261.17928   -3877.7941   -3430.1418   -3877.7941    739.66199    33006.481            0            0   -37623.937   -27.726506    65.553323    17.180434    23.509427    21.466685    8670.4406 
  333500     286.8007   -3865.8061   -3374.2395   -3865.8061    664.07601    33092.129            0            0   -37622.011   -27.215967   -1884.0341    17.287197     23.65552    21.600084    8833.0878 
  334000    261.27176   -3881.2489    -3433.438   -3881.2489    711.79886     33033.79            0            0   -37626.838   -27.884702   -187.60354    17.147883    23.464885    21.426013    8621.2514 
  334500    279.02687   -3880.6185    -3402.376   -3880.6185    718.22947    33026.575            0            0   -37625.423   -27.703762   -404.48165    17.185134    23.515859    21.472558    8677.5587 
  335000    267.92419   -3846.2969    -3387.084   -3846.2969    702.51184    33075.159            0            0   -37623.968   -28.006445   -211.00993       17.123    23.430835    21.394922    8583.7749 
  335500    261.25494   -3885.4207   -3437.6386   -3885.4207    707.62763    33030.797            0            0   -37623.845   -27.582601   -581.86333     17.21026    23.550241    21.503953    8715.6764 
  336000    270.74178   -3887.6294   -3423.5872   -3887.6294      732.388    33002.827            0            0   -37622.844   -27.832634    43.496732    17.158569    23.479508    21.439366    8637.3795 
  336500    262.36739   -3889.5234   -3439.8346   -3889.5234    688.34739      33048.5            0            0   -37626.371   -27.615897   -1074.2525    17.203341    23.540772    21.495307    8705.1681 
  337000    266.87665   -3889.1281   -3431.7107   -3889.1281    766.22068    32971.839            0            0   -37627.188   -27.474606    817.35422     17.23278    23.581057    21.532091    8749.9351 
  337500    284.56828   -3885.4599   -3397.7196   -3885.4599    764.99069    32972.015            0            0   -37622.466   -27.332041    674.46891    17.262691    23.621986    21.569464    8795.5753 
  338000    285.51466   -3827.7703    -3338.408   -3827.7703    652.86408    33143.221            0            0   -37623.855   -26.666752   -1939.3515    17.405071    23.816817    21.747366    9015.0095 
  338500    273.56418   -3923.4285   -3454.5488   -3923.4285    774.98841    32927.444            0            0   -37625.861   -27.162683    228.42602    17.298494    23.670978    21.614199    8850.4151 
  339000    277.34554   -3893.5769   -3418.2161   -3893.5769    712.68383     33021.77            0            0   -37628.031   -27.128355   -1022.9857    17.305787    23.680958    21.623312    8861.6146 
  339500    267.44644   -3855.0049   -3396.6109   -3855.0049    778.83558    32993.223            0            0   -37627.064   -27.180947    1205.7333    17.294619    23.665675    21.609357    8844.4684 
  340000    274.76038   -3885.5133   -3414.5834   -3885.5133    768.93403    32971.418            0            0   -37625.865   -27.250913    439.46257    17.279805    23.645404    21.590847    8821.7604 
  340500    268.62543   -3901.2167   -3440.8019   -3901.2167     764.0676    32959.133            0            0   -37624.418   -27.778414    653.13239    17.169726    23.494774    21.453306    8654.2387 
  341000    270.27891   -3893.8096   -3430.5608   -3893.8096    802.10334     32927.98            0            0   -37623.893    -27.95011    1886.1277    17.134496    23.446566    21.409287    8601.0761 
  341500    265.94212   -3882.6145   -3426.7988   -3882.6145    783.56986    32958.525            0            0   -37624.709   -27.462601    1142.0332    17.235291    23.584493    21.535228    8753.7601 
  342000    266.07155   -3877.2978   -3421.2603   -3877.2978     747.0142    33002.177            0            0   -37626.489   -27.185793   -68.680313    17.293591    23.664269    21.608073    8842.8917 
  342500    270.04526   -3905.3781   -3442.5297   -3905.3781    668.83265    33048.626            0            0   -37622.837   -26.749202   -2265.5075     17.38717    23.792321    21.724999    8987.2222 
  343000    273.70084    -3877.529   -3408.4152    -3877.529    730.69114    33016.745            0            0   -37624.965   -26.931064   -439.72553    17.347944    23.738645    21.675986    8926.5326 
  343500     276.7542   -3902.3582   -3428.0109   -3902.3582    800.35878    32923.957            0            0   -37626.674   -27.483746    1194.6878     17.23087    23.578443    21.529704    8747.0254 
  344000    273.45314    -3852.952   -3384.2627    -3852.952    750.44404    33020.681            0            0   -37624.077   -27.510408    554.05602    17.225302    23.570823    21.522747     8738.548 
  344500    272.08276   -3893.3677   -3427.0271   -3893.3677    758.59685    32972.664            0            0   -37624.628    -27.33297    323.80794    17.262495    23.621718     21.56922    8795.2764 
  345000    282.32932    -3872.498   -3388.5952    -3872.498     728.7576    33023.446            0            0   -37624.702   -27.117025   -13.247242    17.308197    23.684256    21.626323    8865.3172 
  345500     268.2647    -3905.261   -3445.4645    -3905.261    770.53856    32950.903            0            0   -37626.702   -27.041483    181.12353    17.324299     23.70629    21.646443    8890.0829 
  346000     289.3212   -3859.6406    -3363.754   -3859.6406    745.92613    33018.724            0            0   -37624.291   -27.237462     355.1189    17.282649    23.649296    21.594401    8826.1167 
  346500     285.1284   -3864.4594   -3375.7591   -3864.4594    703.00535    33057.565            0            0    -37625.03   -27.486091   -431.79671     17.23038    23.577772    21.529092     8746.279 
  347000    276.06059   -3882.5898   -3409.4314   -3882.5898    727.69332    33017.239            0            0   -37627.523   -27.552798   -68.026898    17.216463    23.558729    21.511703    8725.1037 
  347500    269.71342   -3866.5563   -3404.2767   -3866.5563    675.22026    33082.242            0            0   -37624.019   -27.910014    -859.4039    17.142697    23.457789    21.419534    8613.4325 
  348000    261.40783   -3847.3379   -3399.2938   -3847.3379    740.05156    33037.002            0            0   -37624.391   -27.861569    607.27328    17.152628    23.471377    21.431942    8628.4094 
  348500    271.83315   -3856.6781   -3390.7654   -3856.6781    702.73491    33065.394            0            0   -37624.807   -28.164602   -42.836038    17.090888    23.386894      21.3548    8535.5732 
  349000    255.04632   -3847.8618   -3410.7212   -3847.8618    707.75584    33069.669            0            0   -37625.287   -27.501595   -210.46181    17.227141    23.573341    21.525045    8741.3483 
  349500    267.98124   -3821.4674   -3362.1567   -3821.4674    679.08467    33120.012            0            0   -37620.564   -27.741201   -713.12227      17.1774    23.505275    21.462894    8665.8478 
  350000    257.94599    -3830.003   -3387.8924    -3830.003    690.95825    33102.538            0            0   -37623.499    -27.68156   -257.43825    17.189728    23.522144    21.478297    8684.5186 
  350500    257.01344   -3819.9719   -3379.4596   -3819.9719    686.84269    33116.376            0            0   -37623.191   -27.082858    -978.3483    17.315473    23.694212    21.635414    8876.5013 
  351000    271.45528   -3863.4422   -3398.1771   -3863.4422    688.90789    33071.601            0            0   -37623.951   -27.520709   -824.64591    17.223152    23.567882    21.520061    8735.2773 
  351500    270.00411   -3803.2544   -3340.4766   -3803.2544    682.50721    33137.454            0            0   -37623.215   -27.499216   -421.12497    17.227638    23.574021    21.525666    8742.1047 
  352000    264.89464   -3802.1103     -3348.09   -3802.1103    676.78887    33144.147            0            0   -37623.046   -27.746629   -122.89808     17.17628    23.503742    21.461494    8664.1523 
  352500    266.64523   -3870.1806   -3413.1598   -3870.1806    715.54801    33038.702            0            0   -37624.431   -27.439228    -552.3037    17.240184    23.591187    21.541341    8761.2168 
  353000    286.12069   -3805.3406   -3314.9395   -3805.3406    635.43237    33181.562            0            0   -37622.335   -27.098383   -1777.1188    17.312165    23.689686    21.631281    8871.4159 
  353500    273.80704   -3814.2057   -3344.9098   -3814.2057    693.38436    33117.169            0            0   -37624.759   -27.798916    95.970437    17.165504    23.488997     21.44803    8647.8559 
  354000    270.76756    -3825.025   -3360.9387    -3825.025    726.54224    33073.451            0            0   -37625.018   -28.489032    1381.8709    17.025764    23.297779    21.273428    8438.3711 
  354500    270.66066   -3821.8086   -3357.9055   -3821.8086    656.94605    33146.025            0            0   -37624.779   -27.835703   -1062.1343    17.157939    23.478645    21.438578    8636.4272 
  355000     270.5939   -3833.1046   -3369.3159   -3833.1046     704.4188    33088.153            0            0   -37625.676   -28.180712   -11.230105    17.087631    23.382437     21.35073    8530.6938 
  355500    255.96546    -3853.821   -3415.1049    -3853.821    738.87598    33033.279            0            0   -37625.976   -28.481387    979.61311    17.027287    23.299864    21.275331    8440.6361 
  356000    263.12809   -3821.3747   -3370.3822   -3821.3747    680.58208    33120.743            0            0     -37622.7   -28.110444   -396.77054    17.101857    23.401904    21.368505     8552.018 
  356500    258.24722   -3873.9683   -3431.3414   -3873.9683    722.72537    33027.535            0            0   -37624.229   -27.766134   -351.14074    17.172257    23.498238    21.456468    8658.0662 
  357000    270.62444   -3817.2511   -3353.4101   -3817.2511    708.53327    33096.149            0            0   -37621.933   -27.779381    263.25908    17.169527    23.494502    21.453057    8653.9373 
  357500    266.62989   -3822.8606   -3365.8661   -3822.8606    762.72648    33039.024            0            0   -37624.611   -27.940249    1356.2978    17.136512    23.449325    21.411805    8604.1117 
  358000     259.9657   -3803.9787   -3358.4064   -3803.9787    766.49406    33051.879            0            0   -37622.352   -27.702831    1692.7741    17.185327    23.516122    21.472799    8677.8504 
  358500    263.23818   -3841.0744   -3389.8932   -3841.0744    723.22003    33060.867            0            0   -37625.162   -27.734345    189.06861    17.178815    23.507212    21.464663    8667.9898 
  359000    268.71704   -3821.4892   -3360.9174   -3821.4892    724.59439    33079.358            0            0   -37625.441   -27.840103    467.05877    17.157035    23.477408    21.437448    8635.0623 
  359500      257.562    -3827.791   -3386.3386    -3827.791      691.969     33102.26            0            0   -37622.021   -27.776242   -206.24766    17.170174    23.495387    21.453865    8654.9154 
  360000    244.67929   -3856.1487   -3436.7768   -3856.1487    712.03748    33056.937            0            0   -37625.123   -27.365726   -780.52897    17.255605     23.61229     21.56061    8784.7486 
  360500    266.13724   -3801.8995   -3345.7494   -3801.8995    719.91122    33099.509            0            0    -37621.32   -26.975503    140.70578    17.338412    23.725602    21.664077    8911.8273 
  361000    275.47749   -3866.4811   -3394.3221   -3866.4811     690.8602    33066.671            0            0   -37624.012   -26.728091   -1641.7683    17.391747    23.798584    21.730717    8994.3207 
  361500    259.97883   -3893.8513   -3448.2565   -3893.8513    737.87087    32993.896            0            0   -37625.618   -27.205974   -252.58871    17.289314    23.658416    21.602729    8836.3321 
  362000     266.4882   -3870.9938   -3414.2421   -3870.9938    743.39575    33010.674            0            0   -37625.064   -27.039135   -16.420224    17.324801    23.706976    21.647069    8890.8549 
  362500    279.67821   -3838.4051   -3359.0463   -3838.4051    694.12708    33088.802            0            0   -37621.335   -26.801973   -999.06918    17.375751    23.776696    21.710731    8969.5272 
  363000    270.54017   -3879.7954   -3416.0988   -3879.7954    718.67046    33028.736            0            0   -37627.202   -27.306846    -480.5582    17.267998    23.629249    21.576096    8803.6906 
  363500    269.86837   -3847.0956   -3384.5505   -3847.0956    757.83395    33016.841            0            0   -37621.771   -27.233305    743.99509    17.283528    23.650499      21.5955    8827.4641 
  364000    275.32261   -3889.2506   -3417.3571   -3889.2506    710.11948    33026.112            0            0   -37625.482   -26.551275   -1162.3252    17.430268    23.851295    21.778848    9054.2177 
  364500    262.15747   -3857.7719    -3408.443   -3857.7719    817.64764    32947.715            0            0   -37623.134   -26.976821    1970.7286     17.33813    23.725216    21.663724    8911.3918 
  365000    271.45752   -3907.4284   -3442.1595   -3907.4284    759.17407    32960.793            0            0   -37627.396   -26.541319   -499.95267    17.432447    23.854277    21.781571    9057.6141 
  365500    280.29272   -3924.2328   -3443.8206   -3924.2328    782.61907    32919.863            0            0   -37626.715   -26.563378    138.71734     17.42762    23.847672     21.77554    9050.0923 
  366000    256.08822   -3909.2429   -3470.3165   -3909.2429     770.4646    32946.834            0            0   -37626.542   -26.356629   -476.21706     17.47307    23.909866     21.83233     9121.084 
  366500    260.56513   -3889.0924   -3442.4926   -3889.0924    768.46226    32969.919            0            0   -37627.473   -27.160126     337.1792    17.299037    23.671721    21.614877    8851.2483 
  367000    251.66397   -3869.1132   -3437.7698   -3869.1132    802.35589    32951.927            0            0   -37623.396    -27.02184    1277.8841    17.328496    23.712033    21.651687    8896.5454 
  367500    272.61341   -3867.4562   -3400.2061   -3867.4562    792.92385     32962.03            0            0    -37622.41   -26.862395    993.47884    17.362714    23.758855    21.694441    8949.3518 
  368000    269.32343   -3886.2934   -3424.6822   -3886.2934    747.11157    32990.957            0            0   -37624.362   -27.184039   -91.898141    17.293963    23.664778    21.608538    8843.4621 
  368500    287.11012   -3894.1873   -3402.0904   -3894.1873    750.19413    32980.107            0            0   -37624.488   -26.780323   -373.50598    17.380432    23.783102     21.71658    8976.7784 
  369000    258.33292   -3871.6953   -3428.9215   -3871.6953    723.79804    33027.405            0            0   -37622.898   -26.913621   -492.38146    17.351691    23.743772    21.680668     8932.318 
  369500     259.3262   -3869.3279   -3424.8517   -3869.3279     757.5823    32993.299            0            0   -37620.209   -26.821029   -32.288894    17.371635    23.771064    21.705588    8963.1544 
  370000    281.77255   -3846.0517   -3363.1032   -3846.0517    689.13169     33087.46            0            0   -37622.643   -26.574286   -1268.5963    17.425235    23.844409     21.77256    9046.3773 
  370500    257.51924   -3844.3896   -3403.0104   -3844.3896    765.03321    33012.119            0            0   -37621.542   -26.801131    369.39621    17.375933    23.776945    21.710958    8969.8087 
  371000    251.45193   -3859.8448   -3428.8648   -3859.8448    805.59536    32954.924            0            0   -37620.364   -27.221131    1728.3137    17.286104    23.654024    21.598718    8831.4119 
  371500    270.76412   -3826.0305     -3361.95   -3826.0305    752.08583      33046.8            0            0   -37624.917   -26.942279    528.86645    17.345536    23.735351    21.672978    8922.8169 
  372000    258.14943   -3839.8958   -3397.4365   -3839.8958     719.3034    33063.774            0            0   -37622.973   -27.279184   -37.693978    17.273833    23.637233    21.583386    8812.6177 
  372500    256.53709   -3815.6019   -3375.9061   -3815.6019    663.64273    33144.222            0            0   -37623.466   -26.987882   -1609.4296    17.335761    23.721974    21.660764    8907.7396 
  373000    250.43955   -3834.0638   -3404.8189   -3834.0638    768.34493    33022.809            0            0   -37625.218   -27.812555    1485.4394    17.162698    23.485157    21.444524    8643.6153 
  373500    272.13393   -3821.4664   -3355.0382   -3821.4664    687.81651    33111.768            0            0   -37621.051   -27.387476   -669.37807    17.251036    23.606037    21.554901    8777.7722 
  374000    269.46269   -3816.5414   -3354.6916   -3816.5414     719.4471    33086.448            0            0   -37622.436   -27.394567     12.44325    17.249547       23.604    21.553041    8775.4999 
  374500    267.03327   -3828.4811   -3370.7952   -3828.4811    653.93335    33142.308            0            0   -37624.723   -27.553633   -1535.9465    17.216289    23.558491    21.511486    8724.8394 
  375000    268.25844   -3823.8501   -3364.0643   -3823.8501    723.63278     33076.31            0            0   -37623.793   -27.320994    184.19867    17.265017    23.625169    21.572371    8799.1315 
  375500    269.57378   -3812.8888   -3350.8485   -3812.8888    717.51559    33093.073            0            0   -37623.478   -27.278293    169.23812    17.274021     23.63749    21.583621    8812.9058 
  376000    266.10081   -3796.5607   -3340.4731   -3796.5607     669.9981    33157.964            0            0   -37624.523   -27.249713    -892.1296    17.280058    23.645751    21.591164     8822.149 
  376500    271.15423   -3793.6924   -3328.9433   -3793.6924    673.51668    33157.725            0            0   -37624.934   -26.815876   -1263.4299    17.372748    23.772586    21.706979    8964.8768 
  377000    274.65732   -3840.0627   -3369.3094   -3840.0627    723.90101    33060.132            0            0   -37624.096   -26.861987   -99.636799    17.362802    23.758976    21.694551    8949.4879 
  377500     269.0463   -3855.1808   -3394.0447   -3855.1808    736.81835    33031.348            0            0   -37623.347   -27.007773    -133.2371    17.331504    23.716149    21.655445    8901.1791 
  378000    258.77438    -3838.872   -3395.3416    -3838.872    675.14424    33110.588            0            0   -37624.604   -27.234311   -1376.7898    17.283315    23.650208    21.595234    8827.1379 
  378500    276.02888   -3844.0454   -3370.9413   -3844.0454    725.42628    33053.238            0            0   -37622.709   -27.253185    49.267097    17.279324    23.644747    21.590247    8821.0248 
  379000     249.1934   -3887.5396   -3460.4306   -3887.5396    756.68619    32981.705            0            0   -37625.931   -27.220759    312.19864    17.286183    23.654132    21.598817    8831.5328 
  379500    264.36563   -3870.2533   -3417.1396   -3870.2533    761.95477    32991.271            0            0   -37623.479   -27.278075     849.7119    17.274067    23.637553    21.583679    8812.9761 
  380000    270.94933   -3887.9022   -3423.5043   -3887.9022    709.59592    33029.631            0            0   -37627.129   -27.161209   -1142.0924    17.298807    23.671406     21.61459    8850.8955 
  380500    276.28148   -3867.3724   -3393.8354   -3867.3724    744.15584     33014.25            0            0   -37625.779   -27.162834    92.465709    17.298462    23.670934    21.614159    8850.3661 
  381000    280.31651   -3879.5342   -3399.0813   -3879.5342     741.5309    33001.512            0            0   -37622.577   -27.079259   -217.38975     17.31624    23.695261    21.636372    8877.6811 
  381500    268.10726   -3848.5352   -3389.0085   -3848.5352     691.1953    33084.139            0            0   -37623.869   -27.020439    -1012.757    17.328796    23.712443    21.652061    8897.0067 
  382000    258.96603    -3803.108   -3359.2491    -3803.108    630.61371    33189.768            0            0    -37623.49   -26.952115   -2243.2148    17.343426    23.732463    21.670342    8919.5607 
  382500    261.50567   -3837.6075   -3389.3958   -3837.6075    748.16221    33034.398            0            0   -37620.168   -27.514141    610.90394    17.224523    23.569757    21.521773    8737.3624 
  383000    268.30163   -3857.2027   -3397.3429   -3857.2027    728.85069    33038.578            0            0   -37624.632   -27.967527    403.37425    17.130939    23.441698    21.404841    8595.7197 
  383500    277.81234   -3863.7037   -3387.5428   -3863.7037    711.04445    33046.402            0            0    -37621.15   -27.935059   -129.74476    17.137573    23.450777    21.413131    8605.7103 
  384000    272.09141   -3867.5759   -3401.2205   -3867.5759     742.2799    33012.793            0            0   -37622.649   -28.367716    939.93055        17.05    23.330944     21.30371    8474.4582 
  384500    273.60842   -3862.8199   -3393.8644   -3862.8199    701.09128    33060.182            0            0   -37624.094   -28.468244     303.9546    17.029907    23.303449    21.278605    8444.5329 
  385000     258.0617   -3813.5306   -3371.2216   -3813.5306    789.40348     33020.24            0            0   -37623.174   -28.218985    2696.0135    17.079902    23.371861    21.341072    8519.1236 
  385500    253.57643   -3854.2962   -3419.6749   -3854.2962    667.08853    33101.443            0            0   -37622.828   -28.012194   -1094.3877    17.121828    23.429232    21.393458    8582.0134 
  386000    287.74556   -3811.6649   -3318.4788   -3811.6649    739.09774    33073.399            0            0   -37624.161   -27.679951    1099.5234    17.190061      23.5226    21.478714    8685.0234 
  386500     269.9992   -3830.4582   -3367.6888   -3830.4582    704.94112    33089.588            0            0   -37624.987    -27.57887    -230.7331    17.211036    23.551303    21.504923    8716.8554 
  387000    275.95219   -3846.2085   -3373.2359   -3846.2085    710.98534    33064.269            0            0   -37621.462   -27.296652    -461.6709    17.270148     23.63219    21.578781    8806.9784 
  387500    274.97702   -3868.9904   -3397.6892   -3868.9904    739.45608    33016.468            0            0   -37624.915   -27.817111    278.72609    17.161761    23.483875    21.443353    8642.1996 
  388000    264.07443   -3851.1611   -3398.5465   -3851.1611    713.75338    33060.163            0            0   -37625.078   -27.550762   -165.42815    17.216887    23.559309    21.512233    8725.7486 
  388500    264.21091   -3813.9886   -3361.1402   -3813.9886    655.59951    33152.572            0            0    -37622.16   -27.076941   -1514.8357    17.316734    23.695937     21.63699    8878.4408 
  389000    272.29246   -3839.3983   -3372.6983   -3839.3983    675.35869     33110.46            0            0   -37625.216   -27.357276   -1064.6624    17.257381    23.614721     21.56283    8787.4621 
  389500    263.45251   -3822.2303   -3370.6817   -3822.2303     687.6968    33115.069            0            0   -37624.996   -27.574012   -564.25516    17.212047    23.552686    21.506185    8718.3913 
  390000     258.2429   -3830.2749   -3387.6554   -3830.2749    726.93211    33065.563            0            0    -37622.77   -27.780126    525.27716    17.169373    23.494292    21.452865    8653.7053 
  390500    281.32716   -3840.1838   -3357.9987   -3840.1838    706.17847     33079.06            0            0   -37625.423   -27.594496   -99.430328    17.207787    23.546856    21.500862    8711.9192 
  391000    276.82014    -3832.107   -3357.6467    -3832.107    693.37127    33098.248            0            0   -37623.727    -27.71495    -522.6738    17.182822    23.512694    21.469668    8674.0557 
  391500    265.48405   -3869.4039   -3414.3734   -3869.4039    728.46189    33027.315            0            0   -37625.181   -27.966472    375.31685    17.131154    23.441993    21.405111    8596.0439 
  392000    256.36823   -3835.2202   -3395.8138   -3835.2202    658.62732    33131.433            0            0    -37625.28   -27.813914   -1246.3666    17.162418    23.484774    21.444175    8643.1929 
  392500    257.29677   -3809.7584   -3368.7605   -3809.7584    638.72192    33175.629            0            0   -37624.109   -27.632866   -1747.4057    17.199819    23.535953    21.490906    8699.8223 
  393000    267.52439   -3796.5703   -3338.0427   -3796.5703    659.55923    33166.986            0            0   -37623.116   -27.645258   -746.67951    17.197248    23.532436    21.487695    8695.9227 
  393500    262.45646   -3833.6885   -3383.8471   -3833.6885    737.58201    33054.632            0            0   -37625.902   -27.711842    419.62164    17.183464    23.513573    21.470471    8675.0286 
  394000    273.42571   -3857.2619   -3388.6195   -3857.2619     776.5073    32991.526            0            0   -37625.295   -28.066866     1682.492    17.110704    23.414009    21.379559    8565.2964 
  394500    259.40202   -3852.9929   -3408.3867   -3852.9929    742.03743    33028.081            0            0   -37623.111   -28.099984    742.98993    17.103979    23.404807    21.371156    8555.2014 
  395000    272.55558   -3817.1472   -3349.9962   -3817.1472    691.83653    33113.805            0            0   -37622.788   -27.205555   -647.23289    17.289402    23.658537     21.60284    8836.4681 
  395500    273.33308   -3857.4388   -3388.9552   -3857.4388    702.76113    33064.403            0            0   -37624.603   -27.214342   -770.63743    17.287541    23.655991    21.600514     8833.615 
  396000    267.75903   -3838.2151   -3379.2852   -3838.2151    776.83287    33008.664            0            0   -37623.712   -27.174994    1329.0531    17.295881    23.667403    21.610935    8846.4059 
  396500    289.73461   -3827.3533   -3330.7581   -3827.3533    726.29672    33071.192            0            0   -37624.842    -27.28678      136.842     17.27223    23.635039    21.581383    8810.1647 
  397000    278.33012   -3806.0446   -3328.9963   -3806.0446    728.53503     33086.95            0            0    -37621.53   -27.186528    454.19133    17.293435    23.664056    21.607878    8842.6526 
  397500    274.36964   -3820.8356   -3350.5755   -3820.8356    693.66058     33107.69            0            0   -37622.186   -26.908459   -745.66263      17.3528     23.74529    21.682054    8934.0317 
  398000    280.51267    -3840.315   -3359.5259    -3840.315    777.69817    33006.624            0            0   -37624.637   -27.484593     1348.069    17.230693    23.578201    21.529483    8746.7558 
  398500     269.5731   -3873.4668   -3411.4278   -3873.4668    754.50723    32995.571            0            0   -37623.545   -26.973072    162.62253    17.338933    23.726315    21.664728    8912.6304 
  399000    268.28144   -3858.4261   -3398.6009   -3858.4261    807.14178    32958.736            0            0   -37624.304   -27.325311     1658.174    17.264108    23.623925    21.571234    8797.7415 
  399500    258.30073   -3838.9486     -3396.23   -3838.9486    699.93872    33087.568            0            0   -37626.456   -27.101958     -843.181    17.311404    23.688644     21.63033    8870.2455 
  400000    256.08846   -3837.3904   -3398.4635   -3837.3904    759.48579     33025.28            0            0   -37622.156   -27.460108    1112.3399    17.235813    23.585206     21.53588    8754.5548 
  400500    267.27053   -3909.4139   -3451.3214   -3909.4139    798.35787    32916.264            0            0   -37624.036   -27.829926    1477.3722    17.159126    23.480269    21.440061    8638.2201 
  401000    291.53175    -3879.581   -3379.9055    -3879.581    704.27728     33038.22            0            0   -37622.079   -27.319726   -887.12456    17.265284    23.625535    21.572704      8799.54 
  401500    280.94822   -3862.0885   -3380.5528   -3862.0885    700.40836     33060.85            0            0   -37623.347   -27.060468   -852.45152    17.320247    23.700745    21.641379    8883.8458 
  402000      269.505    -3863.107   -3401.1846    -3863.107    736.15887     33026.84            0            0   -37626.106   -27.360837    115.96394    17.256633    23.613696    21.561894    8786.3184 
  402500    260.44333   -3875.5478   -3429.1568   -3875.5478    718.02092    33032.091            0            0    -37625.66   -27.247966   -602.88419    17.280428    23.646257    21.591626    8822.7146 
  403000    270.43358   -3897.0144   -3433.5005   -3897.0144    707.28658    33022.633            0            0   -37626.934    -27.38333   -1218.6756    17.251906    23.607228    21.555989     8779.101 
  403500    263.88392   -3887.0398   -3434.7518   -3887.0398    738.71946    32998.347            0            0   -37624.106   -27.653201    11.914923    17.195602    23.530182    21.485637    8693.4249 
  404000    291.88766   -3870.8524   -3370.5669   -3870.8524    713.59741    33041.841            0            0   -37626.291   -27.352795    -494.9691    17.258324     23.61601    21.564007    8788.9017 
  404500    286.32835   -3909.5087   -3418.7517   -3909.5087    746.35396    32970.935            0            0   -37626.798   -27.333175   -135.53471    17.262452    23.621659    21.569165    8795.2102 
  405000    272.42535   -3857.1233   -3390.1956   -3857.1233    743.59669     33021.82            0            0    -37622.54   -27.476872    558.87672    17.232307    23.580409    21.531499    8749.2137 
  405500    261.26147   -3898.4692   -3450.6759   -3898.4692    764.41697    32964.091            0            0   -37626.977   -27.500602     471.8884    17.227349    23.573624    21.525305     8741.664 
  406000    268.57365   -3831.3097   -3370.9836   -3831.3097    711.15196    33082.009            0            0   -37624.471   -27.094413   -588.15717    17.313011    23.690843    21.632338    8872.7157 
  406500     275.9946   -3880.7819   -3407.7367   -3880.7819    764.84613    32977.955            0            0   -37623.583   -27.283981    1015.1445    17.272821    23.635847    21.582121    8811.0683 
  407000    274.50526    -3852.148   -3381.6554    -3852.148    730.00475     33040.09            0            0   -37622.243   -27.495594     303.6799    17.228395    23.575055    21.526611     8743.256 
  407500    275.84078   -3831.7746   -3358.9929   -3831.7746    721.84764    33070.832            0            0   -37624.454   -27.930153    610.33488    17.138576     23.45215    21.414385    8607.2219 
  408000    259.47534   -3831.5124   -3386.7806   -3831.5124     770.4523    33022.426            0            0    -37624.39   -27.643352    1385.3015    17.197644    23.532976    21.488188    8696.5222 
  408500    260.93197   -3840.5829   -3393.3544   -3840.5829    714.30138    33067.954            0            0   -37622.838   -27.036141   -53.943643     17.32544    23.707851    21.647868    8891.8395 
  409000    278.67663   -3858.2328   -3380.5906   -3858.2328    650.55875    33115.788            0            0    -37624.58   -27.691391   -1502.1406    17.187693     23.51936    21.475755    8681.4356 
  409500    257.92262   -3858.5068   -3416.4362   -3858.5068    695.96267    33071.651            0            0    -37626.12   -27.993581   -167.65265    17.125622    23.434423    21.398199    8587.7195 
  410000    265.31399   -3814.7388   -3359.9997   -3814.7388    693.97773    33114.309            0            0   -37623.025   -27.326923   -412.47766    17.263768    23.623461     21.57081    8797.2226 
  410500     274.0429    -3831.577   -3361.8768    -3831.577    704.30687    33089.859            0            0   -37625.742    -27.11846    -522.8577    17.307892    23.683838    21.625942     8864.848 
  411000    268.92831   -3874.0297   -3413.0958   -3874.0297    763.54103    32986.366            0            0   -37623.937   -27.420682    740.35068    17.244069    23.596505    21.546197    8767.1424 
  411500    295.73398   -3822.9473   -3316.0693   -3822.9473    644.76651    33154.658            0            0   -37622.372   -27.198013   -1696.8164       17.291    23.660724    21.604836    8838.9186 
  412000    280.71001   -3821.9817   -3340.8543   -3821.9817    733.48914    33067.611            0            0   -37623.082   -27.813939    953.51255    17.162413    23.484767    21.444168    8643.1852 
  412500    287.77244   -3838.4633   -3345.2311   -3838.4633    695.34709    33091.273            0            0   -37625.083   -27.600902   -242.08026    17.206456    23.545035    21.499199    8709.8975 
  413000    269.85161   -3824.8029   -3362.2864   -3824.8029    741.89872    33055.169            0            0    -37621.87   -27.211026    600.91199    17.288244    23.656952    21.601392    8834.6916 
  413500    265.43565   -3851.0469   -3396.0993   -3851.0469    708.38345    33066.273            0            0   -37625.704   -27.419581   -254.52089      17.2443    23.596821    21.546485    8767.4945 
  414000    274.01898   -3839.9861   -3370.3269   -3839.9861    672.19164     33111.27            0            0   -37623.448   -27.930308   -714.75234    17.138544    23.452106    21.414345    8607.1739 
  414500     257.9851   -3838.9764   -3396.7988   -3838.9764    763.13772    33022.292            0            0   -37624.406   -28.152667     1525.415    17.093303    23.390199    21.357817    8539.1917 
  415000    266.80066   -3850.9618   -3393.6746   -3850.9618    721.49497    33052.949            0            0   -37625.406   -28.126394    407.08558    17.098624     23.39748    21.364465    8547.1684 
  415500    277.00928   -3919.5957   -3444.8113   -3919.5957    717.96395    32986.611            0            0   -37624.171   -28.124985   -385.31084    17.098909     23.39787    21.364822    8547.5964 
  416000    272.72114    -3864.664   -3397.2293    -3864.664    728.74027    33032.626            0            0   -37626.031   -28.018259     411.2514    17.120593    23.427541    21.391915    8580.1557 
  416500    276.89507   -3889.7661   -3415.1774   -3889.7661    709.81891    33026.206            0            0   -37625.791   -28.371337   -19.500658    17.049275    23.329951    21.302804    8473.3767 
  417000    257.00308   -3858.1459   -3417.6514   -3858.1459    680.04476    33087.166            0            0   -37625.357   -27.657097   -831.30774    17.194794    23.529077    21.484628    8692.2001 
  417500    269.89785   -3838.9764   -3376.3807   -3838.9764    727.50618    33056.386            0            0   -37622.868   -27.708357    714.87596    17.184184    23.514559    21.471371    8676.1196 
  418000    264.56215   -3871.7671   -3418.3166   -3871.7671    742.86476    33009.447            0            0   -37624.078   -27.345606    117.64764    17.259836    23.618079    21.565897    8791.2122 
  418500     264.6045   -3845.7667   -3392.2436   -3845.7667    714.66224    33060.663            0            0   -37621.092   -27.310517   -579.64582    17.267225     23.62819    21.575129    8802.5072 
  419000    269.61898   -3868.6036   -3406.4859   -3868.6036    718.30309    33036.143            0            0    -37623.05   -27.171192     -524.529    17.296688    23.668507    21.611943    8847.6435 
  419500    267.21355   -3848.3618   -3390.3669   -3848.3618     656.0449     33119.91            0            0   -37624.317   -26.995894   -2195.2758    17.334046    23.719627    21.658621    8905.0959 
  420000    264.33887   -3893.1754   -3440.1076   -3893.1754    747.49015    32980.212            0            0   -37620.877   -27.517566    188.20739    17.223808    23.568779     21.52088    8736.2751 
  420500    258.03458   -3871.2553   -3428.9929   -3871.2553    742.01945    33013.033            0            0   -37626.308   -27.770718    320.55118    17.171312    23.496945    21.455287     8656.637 
  421000    276.24304   -3855.3042   -3381.8331   -3855.3042    771.91718    32997.446            0            0   -37624.668   -27.685455     1106.467    17.188921    23.521041     21.47729    8683.2968 
  421500    271.45812   -3865.2755   -3400.0056   -3865.2755    689.63989    33068.573            0            0   -37623.489    -27.85728   -691.94403    17.153508    23.472581    21.433041    8629.7378 
  422000    262.97597   -3841.2904   -3390.5586   -3841.2904    732.93163    33049.309            0            0   -37623.531   -28.202497     836.4917     17.08323    23.376415    21.345231    8524.1043 
  422500    281.65022   -3865.3378   -3382.5989   -3865.3378    704.73312    33056.629            0            0     -37626.7   -28.482839    37.322328    17.026998    23.299468     21.27497    8440.2059 
  423000     262.1195   -3818.1203   -3368.8565   -3818.1203    687.35555    33114.073            0            0   -37619.549   -28.170705   -149.71718    17.089654    23.385205    21.353257    8533.7241 
  423500    262.94709   -3793.4224   -3342.7401   -3793.4224    672.23377    33157.781            0            0   -37623.437   -27.719177   -474.82509    17.181948    23.511499    21.468577    8672.7329 
  424000    263.79176   -3812.1902   -3360.0602   -3812.1902    708.03408    33102.813            0            0   -37623.037   -27.961859     548.5649    17.132096    23.443282    21.406288    8597.4621 
  424500    257.62312   -3842.9906   -3401.4334   -3842.9906    654.69535    33126.916            0            0   -37624.602     -27.5892   -1547.6671    17.208888    23.548363    21.502238    8713.5916 
  425000    273.58349   -3857.3074   -3388.3947   -3857.3074    699.78313    33066.485            0            0   -37623.576   -28.200663   -121.33631    17.083601    23.376922    21.345693    8524.6586 
  425500    277.76255   -3881.7378   -3405.6623   -3881.7378    740.62934    33004.804            0            0   -37627.172   -27.998054    641.09375     17.12471    23.433175    21.397059    8586.3475 
  426000    266.00745    -3843.536   -3387.6083    -3843.536    674.60104    33105.503            0            0    -37623.64    -28.12863   -350.07672    17.098171    23.396859    21.363899    8546.4889 
  426500    257.40792   -3840.4771   -3399.2887   -3840.4771    744.78503    33040.498            0            0   -37625.761   -27.895883    930.76726    17.145592    23.461749     21.42315    8617.7958 
  427000    268.44265   -3847.6054   -3387.5039   -3847.6054    706.66253    33070.973            0            0    -37625.24   -27.773444   -409.89854     17.17075    23.496176    21.454585    8655.7873 
  427500    274.50614   -3812.1268   -3341.6327   -3812.1268    703.88077     33107.77            0            0   -37623.778   -28.331231    702.69776    17.057316    23.340955    21.312851    8485.3717 
  428000    276.50558   -3837.4374   -3363.5163   -3837.4374     680.6414    33106.226            0            0   -37624.305    -28.01197   -432.03421    17.121874    23.429294    21.393515    8582.0821 
  428500    278.31114   -3867.9369   -3390.9212   -3867.9369    672.89989    33085.558            0            0   -37626.395    -28.33646   -842.65032    17.056267    23.339519     21.31154    8483.8058 
  429000    278.35185   -3885.9933   -3408.9077   -3885.9933    733.80115    33006.679            0            0   -37626.473   -28.694673    722.64798    16.984995    23.241991    21.222487    8377.8973 
  429500    262.57752   -3858.5096   -3408.4607   -3858.5096    713.74239    33052.665            0            0   -37624.917    -27.97901   -72.772206    17.128595    23.438491    21.401913    8592.1918 
  430000    252.09916   -3821.5415   -3389.4521   -3821.5415    705.09771    33099.508            0            0   -37626.147   -28.483599    529.99218    17.026847    23.299261     21.27478    8439.9807 
  430500    269.46654   -3870.0807   -3408.2242   -3870.0807    672.05825    33079.913            0            0   -37622.051   -27.996039   -1087.7936    17.125121    23.433738    21.397573    8586.9655 
  431000     259.4709   -3822.0743     -3377.35   -3822.0743    691.78503    33108.234            0            0   -37622.093   -27.857175   -188.96042    17.153529    23.472611    21.433068    8629.7703 
  431500    263.44937   -3820.1632     -3368.62   -3820.1632    730.92017    33073.473            0            0   -37624.557   -28.175367    1023.9945    17.088712    23.383916     21.35208    8532.3122 
  432000    263.94331   -3824.9599   -3372.5701   -3824.9599    733.02086    33064.515            0            0   -37622.496   -28.156646    941.24737    17.092498    23.389097    21.356811    8537.9849 
  432500    267.74248   -3815.1774    -3356.276   -3815.1774    721.98222    33089.369            0            0   -37626.529   -28.624063    1412.1299     16.99895    23.261087    21.239923    8398.5639 
  433000    276.71115   -3871.8625    -3397.589   -3871.8625    665.31415     33087.74            0            0   -37624.917   -27.961447   -1096.6207     17.13218    23.443397    21.406393    8597.5889 
  433500     283.8282   -3836.7951   -3350.3233   -3836.7951    629.47065    33155.455            0            0   -37621.721   -27.468546   -1982.1555    17.234048    23.582791    21.533675    8751.8655 
  434000    275.94719   -3851.9376   -3378.9736   -3851.9376    748.94389    33022.147            0            0   -37623.029   -27.660273    865.59105    17.194136    23.528177    21.483806    8691.2021 
  434500    277.60466   -3860.4949     -3384.69   -3860.4949    723.82815    33039.895            0            0   -37624.218     -27.9805    360.10968    17.128291    23.438075    21.401533    8591.7344 
  435000    257.00366   -3836.6397   -3396.1442   -3836.6397    687.29712    33099.638            0            0   -37623.575   -27.797416   -740.06355    17.165813     23.48942    21.448416    8648.3227 
  435500    269.24587   -3852.8755   -3391.3973   -3852.8755    757.91601    33012.722            0            0   -37623.514    -27.69699    1100.6607    17.186535    23.517775    21.474308    8679.6805 
  436000    255.28346   -3845.1993   -3407.6522   -3845.1993    638.50562    33138.002            0            0   -37621.707   -27.851633   -1968.8498    17.154667    23.474168     21.43449    8631.4876 
  436500    272.84457   -3869.1296   -3401.4834   -3869.1296    771.86675    32981.818            0            0   -37622.814   -28.013259    1222.1856    17.121611    23.428935    21.393187    8581.6872 
  437000    275.92802   -3875.3957   -3402.4645   -3875.3957    787.46254    32959.515            0            0   -37622.373   -27.836747    1415.0389    17.157724    23.478351     21.43831    8636.1032 
  437500    276.38187   -3855.6403   -3381.9313   -3855.6403    705.77247    33061.706            0            0   -37623.119   -27.612457   -670.10938    17.204055     23.54175      21.4962    8706.2525 
  438000    277.59352   -3901.7711   -3425.9853   -3901.7711    760.04759    32964.666            0            0   -37626.484   -27.781685    370.43327    17.169052    23.493852    21.452464    8653.2198 
  438500    265.84934   -3872.5996   -3416.9429   -3872.5996     690.8488    33062.165            0            0   -37625.613   -27.466797   -1047.9921    17.234413    23.583292    21.534132    8752.4229 
  439000    274.69417   -3889.2818   -3418.4654   -3889.2818    741.08316    32993.343            0            0   -37623.708   -27.952513    429.92894    17.134005    23.445895    21.408673    8600.3368 
  439500    288.47056    -3883.918   -3389.4893    -3883.918    763.38528      32977.7            0            0   -37625.003   -27.769115    847.16231    17.171642    23.497397      21.4557    8657.1367 
  440000    266.47931   -3843.8441   -3387.1077   -3843.8441    700.64414     33075.98            0            0   -37620.468   -27.582956   -298.36078    17.210186     23.55014     21.50386     8715.564 
  440500    290.55321   -3864.6296   -3366.6314   -3864.6296     732.3214    33027.321            0            0   -37624.272   -28.102885    644.74151     17.10339    23.404002     21.37042    8554.3182 
  441000    264.27327   -3832.2067   -3379.2513   -3832.2067     726.9321    33062.395            0            0   -37621.534   -28.094455    696.03397    17.105101    23.406343    21.372558    8556.8851 
  441500    257.39845   -3844.7862   -3403.6141   -3844.7862    762.55316    33014.895            0            0   -37622.235   -28.275703    1455.4479    17.068475    23.356223    21.326794    8502.0351 
  442000    274.79335   -3853.8141   -3382.8277   -3853.8141    668.25624    33101.654            0            0   -37623.725   -28.146796   -918.35741    17.094492    23.391825    21.359302    8540.9728 
  442500    279.30284   -3843.5137   -3364.7982   -3843.5137    719.91876    33060.454            0            0   -37623.886   -28.270441    625.09905    17.069534    23.357673    21.328117    8503.6178 
  443000    259.35198   -3849.9395   -3405.4191   -3849.9395    738.24979    33037.389            0            0   -37625.578   -28.100855    624.66921    17.103802    23.404566    21.370935    8554.9363 
  443500    267.09444   -3821.5105   -3363.7198   -3821.5105    668.82905    33130.648            0            0   -37620.988   -28.009781   -675.62304     17.12232    23.429905    21.394073    8582.7528 
  444000    268.65745   -3822.8956   -3362.4259   -3822.8956    700.98776     33101.57            0            0   -37625.454   -28.213901    290.72723    17.080928    23.373265    21.342354    8520.6586 
  444500    285.52288   -3835.8489   -3346.4725   -3835.8489     702.3826    33085.869            0            0     -37624.1   -27.913485   -47.038039    17.141987    23.456816    21.418646    8612.3613 
  445000    256.02506   -3827.2541   -3388.4359   -3827.2541    720.38441    33077.241            0            0    -37624.88   -27.334948   -39.396842    17.262079    23.621148    21.568699    8794.6398 
  445500    267.42619   -3826.4659   -3368.1066   -3826.4659     733.4307    33065.697            0            0   -37625.594   -27.203399    263.37774    17.289859    23.659162     21.60341    8837.1684 
  446000    261.19643   -3849.7703   -3402.0885   -3849.7703    698.55454    33074.267            0            0   -37622.592   -27.359949   -759.92346    17.256819    23.613951    21.562128    8786.6035 
  446500    264.86813   -3858.8582   -3404.8833   -3858.8582    745.35067    33021.736            0            0   -37625.945   -27.781002    618.20758    17.169193    23.494045     21.45264    8653.4325 
  447000     275.1304    -3856.857   -3385.2929    -3856.857       763.48    33006.016            0            0   -37626.353   -27.994486    1385.3063    17.125438    23.434171    21.397968    8587.4418 
  447500    280.73346   -3872.1585    -3390.991   -3872.1585    725.66838    33028.171            0            0   -37625.998   -28.105117    403.86942    17.102938    23.403382    21.369855    8553.6389 
  448000    261.13356   -3863.2774   -3415.7034   -3863.2774    692.78696    33066.743            0            0   -37622.808   -27.861989    -620.6163    17.152541    23.471259    21.431834    8628.2795 
  448500    288.30021    -3833.101   -3338.9643    -3833.101    749.47963    33042.181            0            0   -37624.762   -27.691133    779.97702    17.187746    23.519433    21.475822    8681.5164 
  449000     272.4071    -3850.524   -3383.6275    -3850.524    689.97866    33083.601            0            0   -37624.104   -27.489853   -744.04447    17.229594    23.576697     21.52811    8745.0823 
  449500    273.86022   -3840.2415   -3370.8545   -3840.2415    713.67489     33068.56            0            0   -37622.476   -27.493342   -142.27634    17.228865    23.575699    21.527199    8743.9724 
  450000    274.95419   -3882.4592   -3411.1971   -3882.4592    690.78873    33052.373            0            0    -37625.62   -27.490984   -1284.5557    17.229358    23.576373    21.527815    8744.7224 
  450500    262.84199   -3854.4132   -3403.9111   -3854.4132    754.34708    33014.283            0            0   -37623.043   -27.786752    811.34535    17.168009    23.492424     21.45116    8651.6418 
  451000    278.46356   -3879.8557   -3402.5787   -3879.8557    802.48105    32941.184            0            0    -37623.52   -28.179858    2244.1159    17.087804    23.382673    21.350945    8530.9522 
  451500    251.44052   -3836.8489   -3405.8884   -3836.8489    681.54397    33105.948            0            0   -37624.341   -27.949046    -379.3425    17.134714    23.446864    21.409558    8601.4035 
  452000    268.93107   -3840.0395   -3379.1008   -3840.0395    739.28033    33043.376            0            0   -37622.696   -27.409391     487.0489    17.246437    23.599744    21.549155    8770.7538 
  452500    268.53892     -3835.78   -3375.5135     -3835.78    686.60302    33099.569            0            0   -37621.952   -27.477248   -408.41611    17.232228    23.580301    21.531401     8749.094 
  453000    253.68513   -3842.2332   -3407.4255   -3842.2332    732.12382    33047.978            0            0   -37622.335   -27.706414    519.62156    17.184586    23.515109    21.471873    8676.7282 
  453500    270.31626   -3856.5954   -3393.2826   -3856.5954    695.61699    33070.237            0            0    -37622.45   -27.075645   -1145.9303     17.31701    23.696315    21.637335    8878.8659 
  454000    266.41043   -3843.0263    -3386.408   -3843.0263    669.72935     33111.64            0            0   -37624.396   -26.712089   -1858.2163    17.395219    23.803335    21.735055    8999.7087 
  454500    255.74917   -3844.6299   -3406.2846   -3844.6299    708.15432    33071.209            0            0   -37623.993   -27.440712   -293.90326    17.239873    23.590762    21.540953    8760.7428 
  455000     280.6477   -3811.5743   -3330.5538   -3811.5743    754.39063    33055.989            0            0   -37621.954    -27.77626     1581.525     17.17017    23.495382     21.45386    8654.9097 
  455500    261.63446   -3863.7893   -3415.3568   -3863.7893    759.47996    33000.828            0            0   -37624.097   -27.614158    757.41416    17.203702    23.541267    21.495758    8705.7162 
  456000    277.19202   -3852.9055   -3377.8079   -3852.9055     705.9712    33060.811            0            0   -37619.687    -27.41261    -482.4228    17.245762     23.59882    21.548311    8769.7238 
  456500     292.8701   -3852.1832   -3350.2139   -3852.1832    732.05231    33041.409            0            0   -37625.644   -27.522201    172.42607    17.222841    23.567456    21.519672    8734.8037 
  457000    259.85688   -3879.9162   -3434.5304   -3879.9162    716.81784    33027.211            0            0   -37623.945   -27.492098   -562.93514    17.229125    23.576055    21.527524     8744.368 
  457500    274.10929   -3874.5834   -3404.7695   -3874.5834    695.63614    33054.562            0            0   -37624.782   -27.478784   -785.62043    17.231907    23.579862       21.531    8748.6048 
  458000    258.67841    -3874.726     -3431.36    -3874.726     774.6309    32974.293            0            0    -37623.65   -27.272766    596.56125    17.275188    23.639087    21.585079    8814.6918 
  458500    265.13821   -3818.3205   -3363.8827   -3818.3205    701.93273    33103.337            0            0   -37623.591   -27.244194   -375.77066    17.281225    23.647348    21.592622    8823.9359 
  459000    279.42032   -3899.2134   -3420.2966   -3899.2134    756.04049    32968.473            0            0   -37623.727    -27.21271    13.048025    17.287887    23.656464    21.600946    8834.1448 
  459500    272.84971    -3878.235   -3410.5799    -3878.235    743.47816    33002.517            0            0    -37624.23   -27.139215    81.048075    17.303479    23.677799    21.620428    8858.0685 
  460000    264.23368   -3846.7068   -3393.8193   -3846.7068    703.73035    33074.197            0            0   -37624.635   -27.132532   -655.48093    17.304899    23.679743    21.622202    8860.2501 
  460500    273.81186    -3871.886   -3402.5818    -3871.886     722.6501    33030.255            0            0   -37624.791   -27.728125   -173.06426      17.1801     23.50897    21.466268    8669.9344 
  461000    259.26855   -3871.3709   -3426.9935   -3871.3709    741.05516    33008.715            0            0   -37621.141   -27.531047    46.872069    17.220996    23.564932    21.517367    8731.9972 
  461500    271.88987    -3824.418   -3358.4081    -3824.418    682.36214    33118.315            0            0   -37625.095   -27.128142   -1003.5469    17.305832     23.68102    21.623369     8861.684 
  462000    267.78095   -3825.7481   -3366.7807   -3825.7481    761.88104    33035.451            0            0    -37623.08   -27.435498    1341.9701    17.240965    23.592256    21.542318    8762.4079 
  462500    268.75039   -3845.0978   -3384.4689   -3845.0978    724.17052    33051.532            0            0   -37620.801   -27.454405   -42.742877    17.237006    23.586839    21.537371    8756.3735 
  463000    255.80286   -3817.3763   -3378.9389   -3817.3763    719.89435    33085.138            0            0   -37622.408   -27.269115   -82.788721    17.275959    23.640142    21.586042    8815.8719 
  463500    259.07061   -3854.0106   -3409.9725   -3854.0106      752.834     33015.79            0            0   -37622.635   -27.548313    478.07041    17.217398    23.560007    21.512871    8726.5241 
  464000    267.47112   -3863.7055   -3405.2691   -3863.7055    718.49201    33039.041            0            0   -37621.239   -27.647391   -239.36338    17.196806     23.53183    21.487142    8695.2516 
  464500    272.52203   -3852.6637   -3385.5703   -3852.6637    726.96949    33042.668            0            0   -37622.301   -27.547605   -104.95715    17.217545    23.560209    21.513055    8726.7485 
  465000    282.46451   -3870.8482   -3386.7137   -3870.8482    692.27964    33064.676            0            0   -37627.804   -27.642704   -1242.4973    17.197778     23.53316    21.488356     8696.726 
  465500    274.71199   -3870.5955   -3399.7485   -3870.5955    732.92319    33021.653            0            0   -37625.172   -27.604123   -107.07961    17.205786    23.544119    21.498363    8708.8811 
  466000    253.24033   -3833.7195   -3399.6742   -3833.7195    756.63569    33032.022            0            0   -37622.377   -27.726172    983.40282    17.180503    23.509522    21.466772    8670.5452 
  466500    264.44823   -3864.2333    -3410.978   -3864.2333    733.30036    33027.336            0            0    -37624.87   -27.382054   -124.35055    17.252174    23.607595    21.556324    8779.5101 
  467000    252.30976   -3851.8135   -3419.3632   -3851.8135    701.96738    33066.628            0            0   -37620.409   -27.193246   -1021.1321    17.292011    23.662107    21.606099    8840.4682 
  467500    271.95503   -3876.3421   -3410.2205   -3876.3421    765.03858     32982.44            0            0    -37623.82   -27.332333    645.00171    17.262629    23.621902    21.569387    8795.4812 
  468000    288.87549   -3840.9057    -3345.783   -3840.9057    772.84767    33009.811            0            0   -37623.564   -27.260639    1029.4431    17.277749    23.642592    21.588279     8818.613 
  468500    280.04878   -3856.3523   -3376.3582   -3856.3523    739.99973    33029.309            0            0   -37625.661   -27.305821    164.27288    17.268214    23.629544    21.576365    8804.0209 
  469000    245.86688    -3848.219   -3426.8116    -3848.219    681.73425    33093.145            0            0   -37623.098   -27.379939    -1310.158    17.252619    23.608203    21.556879    8780.1883 
  469500    273.07391   -3851.5681   -3383.5288   -3851.5681    745.83891    33027.874            0            0   -37625.281   -27.114648    307.15641    17.308703    23.684948    21.626955    8866.0941 
  470000    275.22361   -3854.2847   -3382.5608   -3854.2847    679.07046    33092.849            0            0   -37626.204   -27.543224   -730.44209    17.218458    23.561458    21.514196    8728.1365 
  470500    279.93526    -3861.984   -3382.1845    -3861.984      774.736    32985.603            0            0   -37622.323   -27.782449    1554.5795    17.168895    23.493637    21.452267    8652.9817 
  471000    273.53957    -3860.234   -3391.3965    -3860.234    721.05319    33040.982            0            0   -37622.269   -27.311118    -412.4854    17.267098    23.628016    21.574971    8802.3134 
  471500     273.6394    -3840.071   -3371.0624    -3840.071    695.53128    33089.919            0            0   -37625.521   -27.226227   -413.12332    17.285026    23.652548    21.597371    8829.7591 
  472000     279.6949   -3883.6289   -3404.2414   -3883.6289    707.05972    33031.872            0            0   -37622.561   -27.893417   -396.82775    17.146097    23.462441    21.423782    8618.5576 
  472500    269.42331   -3868.9679   -3407.1856   -3868.9679    726.05766    33028.144            0            0    -37623.17   -27.521106    -2.163338    17.223069    23.567768    21.519957    8735.1511 
  473000     258.7842   -3878.8252   -3435.2779   -3878.8252    734.89923    33012.317            0            0   -37626.042   -27.690768    84.934366    17.187822    23.519536    21.475916    8681.6306 
  473500    266.90629   -3865.6763    -3408.208   -3865.6763    709.86961    33049.252            0            0   -37624.798    -28.13003    325.14047    17.097887    23.396471    21.363544    8546.0635 
  474000     265.8704    -3853.915   -3398.2222    -3853.915    781.28513    32990.107            0            0   -37625.307   -27.522832    1360.8866    17.222709    23.567276    21.519508    8734.6035 
  474500    255.41938   -3819.2981    -3381.518   -3819.2981    691.50801    33113.673            0            0   -37624.479   -27.125306   -674.93988    17.306436    23.681846    21.624122    8862.6105 
  475000    272.34272   -3861.9305   -3395.1444   -3861.9305    726.02562    33036.956            0            0   -37624.912   -27.470092   -44.835689    17.233724    23.582349    21.533271    8751.3732 
  475500    287.38131   -3889.6601   -3397.0984   -3889.6601    707.72315    33027.771            0            0   -37625.154   -27.803747   -364.92034     17.16451    23.487637    21.446788    8646.3534 
  476000     273.1718   -3864.9595   -3396.7524   -3864.9595    769.61871    32989.724            0            0   -37624.302   -27.587744    820.61612    17.209191    23.548777    21.502616    8714.0515 
  476500    265.22653    -3855.918   -3401.3289    -3855.918    753.08245     33013.67            0            0    -37622.67   -27.817171    779.59085    17.161748    23.483858    21.443338    8642.1808 
  477000    262.74719   -3894.2269   -3443.8872   -3894.2269    736.32236    32994.398            0            0   -37624.947   -27.710433   -47.780138    17.183755    23.513972    21.470835    8675.4697 
  477500    258.50889   -3880.9977   -3437.9223   -3880.9977    705.72672    33037.963            0            0   -37624.687   -27.521212   -1053.6406    17.223047    23.567738     21.51993    8735.1174 
  478000    270.17773   -3848.7624    -3385.687   -3848.7624    729.22594     33045.92            0            0   -37623.908    -27.29191    -224.6682    17.271148    23.633558    21.580031    8808.5086 
  478500    267.90141   -3858.1223   -3398.9485   -3858.1223    751.82102    33017.572            0            0   -37627.515   -27.449328    400.66702    17.238069    23.588293    21.538699    8757.9929 
  479000    262.37266   -3885.9746   -3436.2769   -3885.9746    741.51474    32997.675            0            0   -37625.164   -27.529265    16.505638    17.221368     23.56544    21.517831    8732.5622 
  479500    267.77081    -3914.797    -3455.847    -3914.797    735.83843    32973.286            0            0   -37623.921   -27.722678   -270.08565    17.181225    23.510509    21.467673    8671.6377 
  480000    271.66011   -3839.5633   -3373.9472   -3839.5633    683.64526     33098.96            0            0   -37622.169   -27.063818   -1030.0091    17.319532    23.699767    21.640486    8882.7459 
  480500    278.21361   -3862.2947   -3385.4461   -3862.2947    700.73023    33059.109            0            0   -37622.134   -27.545899   -532.73683    17.217901    23.560696    21.513499     8727.289 
  481000    265.22197   -3827.7652   -3373.1838   -3827.7652    702.71788    33096.222            0            0   -37626.705   -28.156946    395.01478    17.092437    23.389014    21.356735     8537.894 
  481500    285.62629   -3849.7599   -3360.2062   -3849.7599    634.98721    33139.125            0            0   -37623.872   -28.067645   -1583.1214    17.110545    23.413793    21.379361    8565.0585 
  482000    261.76108   -3837.4547   -3388.8052   -3837.4547    715.06894    33070.851            0            0   -37623.375   -27.970125    183.93733    17.130408    23.440972    21.404179    8594.9214 
  482500    270.89504   -3852.8215   -3388.5167   -3852.8215    685.31018    33085.254            0            0   -37623.386    -27.88015   -628.70744    17.148816    23.466162    21.427179    8622.6588 
  483000     273.6829   -3863.2987   -3394.2156   -3863.2987    719.76433    33045.272            0            0   -37628.335   -27.934188   -113.07564    17.137751     23.45102    21.413354    8605.9786 
  483500    273.99885   -3830.9721   -3361.3475   -3830.9721    723.82325    33068.751            0            0   -37623.547   -27.794843    343.44828    17.166342    23.490144    21.449078    8649.1233 
  484000    277.03179    -3837.602    -3362.779    -3837.602    716.05951    33069.346            0            0   -37623.007   -27.789953    107.82839    17.167349    23.491522    21.450336    8650.6453 
  484500     264.1545   -3853.8707   -3401.1189   -3853.8707     742.5106    33028.446            0            0   -37624.828   -28.020277    783.39611    17.120182    23.426979    21.391401    8579.5377 
  485000    254.36244   -3854.8885     -3418.92   -3854.8885    732.70078    33037.836            0            0   -37625.425    -27.87095    386.80661    17.150703    23.468743    21.429537    8625.5051 
  485500    264.97408   -3840.2224   -3386.0659   -3840.2224    708.76075     33072.69            0            0   -37621.673   -27.695622    168.01839    17.186818    23.518162    21.474662    8680.1092 
  486000    265.65635        -3830   -3374.6741        -3830    758.45545    33032.528            0            0   -37620.984   -28.006718    1551.6178    17.122944    23.430759    21.394852    8583.6912 
  486500     283.9915   -3832.1349   -3345.3832   -3832.1349    678.71915    33110.823            0            0   -37621.677   -27.788877   -760.82708    17.167571    23.491825    21.450613    8650.9802 
  487000    274.92826   -3825.2769   -3354.0593   -3825.2769    716.97696    33082.011            0            0   -37624.265   -28.223247    809.77635    17.079043    23.370685    21.339998    8517.8373 
  487500    264.26911   -3842.1375   -3389.1893   -3842.1375    661.65892    33119.893            0            0   -37623.689   -27.232393   -1609.3155    17.283721    23.650763    21.595741    8827.7597 
  488000    280.07802   -3864.7293   -3384.6852   -3864.7293     731.6412    33029.259            0            0   -37625.629   -27.719494    301.66905    17.181883    23.511409    21.468495    8672.6338 
  488500    263.70741   -3828.1934   -3376.2079   -3828.1934    725.32704    33070.306            0            0   -37623.826   -27.958093    738.28602    17.132865    23.444335    21.407249    8598.6202 
  489000    255.98686   -3860.9508   -3422.1981   -3860.9508    712.37732    33052.379            0            0   -37625.707   -27.425592   -563.30038     17.24304    23.595096    21.544911    8765.5728 
  489500    265.67953   -3875.3585   -3419.9928   -3875.3585    814.19375    32934.784            0            0   -37624.336   -27.888292    2248.1406    17.147147    23.463878    21.425094    8620.1415 
  490000    284.54692    -3851.342   -3363.6383    -3851.342    715.07211    33058.213            0            0   -37624.627   -27.741694    65.924685    17.177298    23.505136    21.462767    8665.6938 
  490500     259.0398   -3837.2981   -3393.3127   -3837.2981    720.03354    33068.449            0            0   -37625.781   -27.325132   -328.53219    17.264146    23.623977    21.571282    8797.7992 
  491000    268.55527   -3834.2549   -3373.9604   -3834.2549    656.81847    33130.014            0            0   -37621.088    -27.52081   -1445.4539    17.223131    23.567853    21.520035    8735.2451 
  491500    271.83748   -3842.9195   -3376.9993   -3842.9195    742.43279    33039.657            0            0   -37625.009   -27.605297    589.88365    17.205543    23.543785    21.498058    8708.5106 
  492000    242.94781    -3805.555   -3389.1508    -3805.555    751.21223    33066.199            0            0   -37622.966   -27.605211    1141.5487     17.20556     23.54381     21.49808    8708.5378 
  492500    271.68196   -3828.1706    -3362.517   -3828.1706    727.16356     33068.89            0            0   -37624.224   -28.041616    661.94756    17.115838    23.421035    21.385974    8573.0089 
  493000    262.83641   -3827.7323   -3377.2397   -3827.7323    675.98567    33121.274            0            0   -37624.992   -27.878686   -605.20837    17.149116    23.466572    21.427554    8623.1118 
  493500    253.88161   -3780.9501   -3345.8057   -3780.9501    679.43903    33162.262            0            0   -37622.651   -28.355362     377.1168    17.052476    23.334331    21.306804    8478.1503 
  494000    270.63788   -3814.9349   -3351.0708   -3814.9349     673.7652     33136.07            0            0    -37624.77   -28.664143    67.720594    16.991023     23.25024    21.230019    8386.8205 
  494500    277.87399   -3829.9534   -3353.6869   -3829.9534     698.4816      33096.6            0            0   -37625.035   -28.400104    454.66592    17.043516    23.322071    21.295609    8464.7937 
  495000    267.04618   -3823.8316   -3366.1235   -3823.8316     712.9356    33084.752            0            0   -37621.519   -28.441816    985.29187     17.03518    23.310664    21.285193    8452.3795 
  495500    286.83707   -3823.3579   -3331.7289   -3823.3579    756.90971    33043.853            0            0   -37624.121   -27.959542    1600.9205    17.132569     23.44393    21.406879    8598.1745 
  496000    280.64946   -3841.0996    -3360.076   -3841.0996    722.41183    33060.699            0            0   -37624.211   -27.619805    435.09441    17.202529    23.539662    21.494293    8703.9363 
  496500    273.61052   -3833.1989   -3364.2398   -3833.1989    733.63802    33054.136            0            0   -37620.973   -28.226951    1037.3164    17.078295    23.369662    21.339065    8516.7194 
  497000    275.03561   -3821.6593   -3350.2577   -3821.6593    690.31217    33113.007            0            0   -37624.978   -28.581638    434.90513    17.007356     23.27259    21.250427    8411.0303 
  497500    273.44524   -3795.6244   -3326.9486   -3795.6244    688.90011    33138.501            0            0   -37623.026   -28.237318    442.70241    17.076205    23.366802    21.336453    8513.5927 
  498000    270.62076   -3845.1494   -3381.3147   -3845.1494    721.13004    33060.581            0            0   -37626.861   -28.058525    654.55534    17.112399    23.416329    21.381677    8567.8425 
  498500    271.31712    -3824.752   -3359.7238    -3824.752    693.45052    33107.509            0            0   -37625.712   -28.284062    288.44885    17.066793    23.353922    21.324692    8499.5225 
  499000     272.5068   -3784.8759   -3317.8086   -3784.8759    654.99645    33183.995            0            0   -37623.868   -27.726484   -668.34296    17.180439    23.509433    21.466691    8670.4474 
  499500    265.41746   -3799.4943   -3344.5779   -3799.4943    636.61646    33190.113            0            0   -37626.224   -27.430094    -1700.258    17.242097    23.593806    21.543732    8764.1342 
  500000    288.27651   -3851.0864   -3356.9903   -3851.0864    685.44258    33084.963            0            0   -37621.492   -27.249776   -960.45383    17.280045    23.645733    21.591148    8822.1285 
  500500    260.00869    -3858.516     -3412.87    -3858.516    712.82655    33054.145            0            0   -37625.487   -27.958265    -114.5413     17.13283    23.444286    21.407205    8598.5672 
  501000    271.28974   -3846.2423    -3381.261   -3846.2423    709.26624    33069.708            0            0   -37625.217   -27.671954    84.351143    17.191716    23.524866    21.480782    8687.5334 
  501500    279.76726   -3833.5369   -3354.0254   -3833.5369    706.88349    33083.588            0            0   -37624.008   -27.479444   -283.19809    17.231769    23.579673    21.530828    8748.3948 
  502000    261.41933    -3830.719   -3382.6552    -3830.719    654.40013    33137.185            0            0   -37622.304   -27.389654   -1446.4902    17.250578    23.605411     21.55433     8777.074 
  502500    269.59994   -3879.4227   -3417.3377   -3879.4227    714.40726    33032.597            0            0   -37626.427   -28.094942    83.513521    17.105002    23.406207    21.372434    8556.7369 
  503000    272.75732   -3866.5842   -3399.0874   -3866.5842     675.9178    33082.484            0            0   -37624.985   -27.698499   -1026.3413    17.186223    23.517348    21.473918    8679.2076 
  503500    273.22297   -3855.6736   -3387.3788   -3855.6736    640.22339    33125.031            0            0   -37620.928   -27.611647   -1959.3058    17.204224     23.54198     21.49641    8706.5079 
  504000    286.92061   -3845.6315   -3353.8594   -3845.6315    703.44685    33072.903            0            0   -37621.981   -27.843949    113.13056    17.156245    23.476327    21.436461    8633.8695 
  504500    278.58006   -3783.3071   -3305.8304   -3783.3071    707.95315    33131.307            0            0   -37622.567    -27.62238    641.81154    17.201995    23.538931    21.493625     8703.125 
  505000    271.48996   -3848.5827   -3383.2582   -3848.5827    666.46005    33108.253            0            0   -37623.296   -27.539105   -1377.9612    17.219316    23.562633    21.515268    8729.4422 
  505500    257.59132   -3857.6162   -3416.1135   -3857.6162    721.56489    33044.601            0            0   -37623.783   -27.571314   -35.329241    17.212608    23.553454    21.506887    8719.2442 
  506000    270.53707   -3865.2364   -3401.5451   -3865.2364    722.60812    33034.902            0            0   -37622.747    -27.91518    150.95897     17.14164    23.456342    21.418213    8611.8386 
  506500    270.71233   -3886.4228   -3422.4311   -3886.4228    802.45928    32935.688            0            0    -37624.57   -28.073516    2182.7599    17.109353     23.41216     21.37787    8563.2672 
  507000    262.97989   -3840.6155   -3389.8769   -3840.6155    692.50702    33091.828            0            0    -37624.95   -27.632574   -380.24141    17.199879    23.536036    21.490982    8699.9143 
  507500    268.54225   -3810.3077   -3350.0355   -3810.3077    685.17517    33127.493            0            0   -37622.976   -27.375399   -672.32909    17.253572    23.609508     21.55807    8781.6446 
  508000    261.78794   -3856.9303   -3408.2347   -3856.9303    770.78049    32996.062            0            0   -37623.773   -27.704703    1398.7927     17.18494    23.515593    21.472315     8677.264 
  508500    287.74574   -3879.9955   -3386.8092   -3879.9955    723.31922    33018.939            0            0   -37622.254   -27.658136    241.13576    17.194579    23.528783    21.484359    8691.8736 
  509000    262.33561    -3862.186   -3412.5517    -3862.186    760.37854    33004.231            0            0   -37626.795   -27.845503    1214.5496    17.155926     23.47589    21.436063    8633.3876 
  509500    280.98463   -3849.0451   -3367.4471   -3849.0451    745.90433    33027.329            0            0   -37622.278   -27.723477    1064.8376     17.18106    23.510283    21.467467    8671.3878 
  510000    268.77869   -3833.8758   -3373.1983   -3833.8758    794.64626    32995.206            0            0   -37623.728   -27.852898    2340.5222    17.154407    23.473813    21.434165    8631.0956 
  510500    268.68273   -3868.2811   -3407.7681   -3868.2811    782.68239    32975.791            0            0   -37626.754   -27.424122     1250.285    17.243348    23.595518    21.545296    8766.0425 
  511000    280.69891   -3835.4552   -3354.3469   -3835.4552    672.31957    33113.726            0            0     -37621.5   -27.218924   -1038.0794    17.286571    23.654664    21.599302    8832.1281 
  511500    267.67909   -3891.5434   -3432.7506   -3891.5434    761.56432     32971.45            0            0   -37624.558   -27.292442     362.1023    17.271036    23.633405    21.579891     8808.337 
  512000    262.78529   -3880.5032   -3430.0982   -3880.5032    754.50726    32989.965            0            0   -37624.975   -27.276375    62.176661    17.274426    23.638044    21.584127    8813.5253 
  512500    280.86304   -3857.1721   -3375.7824   -3857.1721    790.20302    32973.731            0            0   -37621.106   -27.093005    1216.9464    17.313311    23.691253    21.632713    8873.1768 
  513000    276.12514   -3863.9364   -3390.6674   -3863.9364    708.72995    33052.685            0            0   -37625.351   -26.918615   -1114.2617    17.350618    23.742304    21.679327    8930.6609 
  513500    271.25102   -3851.1977   -3386.2828   -3851.1977    722.28635    33050.292            0            0   -37623.776   -26.663505    -906.4269    17.405778    23.817784    21.748249    9016.1074 
  514000    261.40681   -3825.4517   -3377.4094   -3825.4517    741.20038    33055.233            0            0   -37621.885   -26.905004    266.57724    17.353543    23.746307    21.682982    8935.1789 
  514500    265.20317   -3886.8805   -3432.3313   -3886.8805    734.27017     33005.61            0            0    -37626.76   -27.219048   -495.02996    17.286545    23.654628    21.599269    8832.0878 
  515000    277.72279   -3845.2655   -3369.2582   -3845.2655    695.06802    33085.133            0            0   -37625.467   -26.730842   -1391.0285     17.39115    23.797767    21.729972     8993.395 
  515500    275.32695   -3846.4765   -3374.5755   -3846.4765    759.93377    33019.043            0            0   -37625.453   -27.268757    796.09017    17.276035    23.640245    21.586137    8815.9877 
  516000    271.27169   -3865.0741   -3400.1237   -3865.0741    730.14797    33029.507            0            0   -37624.729   -27.673054    350.03285    17.191488    23.524554    21.480498    8687.1879 
  516500    267.45179   -3886.1726   -3427.7694   -3886.1726    761.34518    32978.742            0            0    -37626.26   -26.944925    71.982174    17.344969    23.734574    21.672269    8921.9406 
  517000     260.2545   -3875.1805   -3429.1132   -3875.1805    764.77252    32985.131            0            0   -37625.084   -27.021043    478.92084    17.328667    23.712266      21.6519    8896.8078 
  517500    267.01574   -3889.9495   -3432.2937   -3889.9495    798.21348    32936.578            0            0   -37624.741   -27.267313    1159.2745     17.27634    23.640663    21.586518    8816.4545 
  518000    263.55702   -3886.6775   -3434.9498   -3886.6775    762.34456     32974.59            0            0   -37623.612   -26.947284    264.02992    17.344463    23.733881    21.671636    8921.1598 
  518500    277.46676   -3851.7712   -3376.2026   -3851.7712    726.74349    33044.545            0            0    -37623.06   -26.972068   -291.47366    17.339148    23.726609    21.664996    8912.9621 
  519000     275.6118   -3803.6522    -3331.263   -3803.6522    716.70264    33101.673            0            0   -37622.028   -27.224703    82.085862    17.285348     23.65299    21.597774    8830.2533 
  519500    264.74107   -3836.7651    -3383.008   -3836.7651    682.97922    33103.013            0            0   -37622.757   -26.680618   -1362.3463    17.402056     23.81269    21.743598    9010.3244 
  520000    274.05691   -3843.0475   -3373.3234   -3843.0475    691.15111     33092.01            0            0   -37626.208   -27.236935   -773.46226     17.28276    23.649448     21.59454    8826.2876 
  520500     272.8987   -3831.5858   -3363.8467   -3831.5858    712.92088    33080.158            0            0   -37624.665   -27.503834   -22.549689    17.226674    23.572701    21.524461    8740.6369 
  521000    279.69372   -3859.9873   -3380.6019   -3859.9873     739.6742    33024.855            0            0   -37624.516    -27.99478    734.05398    17.125378    23.434089    21.397893    8587.3517 
  521500    259.34197    -3838.086   -3393.5827    -3838.086    736.39459    33049.398            0            0   -37623.878   -28.405795    1203.6011    17.042378    23.320514    21.294187    8463.0979 
  522000    265.83148   -3823.4238   -3367.7977   -3823.4238    685.31978    33114.298            0            0   -37623.042   -28.483912   -128.14415    17.026784    23.299175    21.274702    8439.8879 
  522500    268.83475   -3823.5603   -3362.7867   -3823.5603     732.7709    33070.408            0            0   -37626.739   -28.026649    888.44805    17.118884    23.425203     21.38978    8577.5872 
  523000    271.82842   -3858.5814   -3392.6767   -3858.5814    742.40335    33020.325            0            0    -37621.31   -28.282177    1030.6959    17.067172    23.354441    21.325166    8500.0892 
  523500    276.99386   -3849.9577   -3375.1997   -3849.9577    698.59748    33076.765            0            0    -37625.32   -28.162183   -11.589993    17.091378    23.387564    21.355411    8536.3065 
  524000    252.99725    -3839.167   -3405.5384    -3839.167    658.11985    33127.854            0            0    -37625.14   -28.003219   -1069.4798    17.123657    23.431735    21.395744    8584.7639 
  524500    270.31488   -3871.1456   -3407.8352   -3871.1456    671.96177    33081.441            0            0   -37624.549   -28.482426   -730.96621     17.02708    23.299581    21.275072    8440.3283 
  525000    278.28447   -3813.8704   -3336.9004   -3813.8704    635.94183    33172.814            0            0   -37622.627   -27.715469   -1584.8664    17.182714    23.512547    21.469535    8673.8934 
  525500    271.73079   -3835.2924   -3369.5551   -3835.2924    715.68917    33072.419            0            0   -37623.401   -28.200126    484.21022    17.083709     23.37707    21.345829    8524.8209 
  526000    269.57391   -3801.1862   -3339.1458   -3801.1862     680.9888    33141.094            0            0   -37623.269   -27.717009   -479.21998    17.182396    23.512112    21.469137    8673.4114 
  526500    276.55691   -3841.7018   -3367.6927   -3841.7018    734.12563    33047.936            0            0   -37623.763   -27.941323    669.38063    17.136292    23.449024    21.411531    8603.7809 
  527000      267.394   -3813.8242     -3355.52   -3813.8242      691.565     33117.79            0            0   -37623.179   -27.552735   -419.60151    17.216476    23.558747     21.51172    8725.1237 
  527500    263.28396   -3794.8185   -3343.5588   -3794.8185    710.20908    33117.292            0            0    -37622.32   -27.022912    50.447035    17.328267    23.711719      21.6514    8896.1922 
  528000    264.67913   -3844.1842   -3390.5332   -3844.1842    686.45454    33093.292            0            0   -37623.931   -27.015708   -1036.6435    17.329807    23.713827    21.653325    8898.5646 
  528500    276.27592   -3852.5524   -3379.0249   -3852.5524    716.56576    33053.631            0            0   -37622.749   -27.188031   -389.58798    17.293116    23.663619     21.60748    8842.1637 
  529000    262.70012   -3878.4619   -3428.2028   -3878.4619    738.74262    33007.854            0            0   -37625.058   -27.334971    121.31731    17.262074    23.621142    21.568693    8794.6324 
  529500    267.38855   -3850.2069   -3391.9121   -3850.2069    721.77043    33050.935            0            0   -37622.912   -27.351776   -68.699898    17.258538    23.616303    21.564275     8789.229 
  530000    255.86365   -3863.2679   -3424.7264   -3863.2679    733.47102    33023.787            0            0   -37620.526   -27.175348    -191.3389    17.295806      23.6673    21.610841    8846.2906 
  530500    271.60132   -3853.1389   -3387.6235   -3853.1389    748.26736    33022.391            0            0   -37623.797   -27.108358    321.35534    17.310041     23.68678    21.628628    8868.1513 
  531000    260.11594    -3923.438   -3477.6081    -3923.438    720.30642    32979.627            0            0   -37623.371   -27.044491   -1101.8183    17.323657    23.705411     21.64564    8889.0941 
  531500    265.32327   -3844.1693   -3389.4143   -3844.1693    701.94477    33077.617            0            0   -37623.731   -26.875319   -1008.7236     17.35993    23.755046    21.690963    8945.0481 
  532000    294.07794   -3847.5046    -3343.465   -3847.5046    717.08111    33059.557            0            0   -37624.142   -26.659509   -355.46151    17.406647    23.818974    21.749335    9017.4587 
  532500     276.2373   -3841.3548   -3367.8935   -3841.3548    751.99643    33029.125            0            0   -37622.477   -27.268727    652.14995    17.276041    23.640254    21.586145    8815.9973 
  533000    269.45257   -3875.3556   -3413.5231   -3875.3556    796.21166    32950.863            0            0    -37622.43    -27.38035    1524.9263    17.252532    23.608085    21.556771    8780.0567 
  533500    270.78345    -3894.283   -3430.1694    -3894.283    775.64178    32954.791            0            0   -37624.716   -27.213405    546.63627     17.28774    23.656263    21.600762    8833.9193 
  534000    266.38093    -3848.365   -3391.7972    -3848.365    762.27369    33012.556            0            0   -37623.194   -27.217846    628.07998    17.286799    23.654976    21.599587    8832.4778 
  534500    258.19984   -3875.7259   -3433.1803   -3875.7259    709.41313    33039.829            0            0   -37624.968   -27.124111   -924.84362     17.30669    23.682193     21.62444    8863.0009 
  535000    268.55704   -3871.9135   -3411.6159   -3871.9135     705.7099    33045.037            0            0   -37622.661   -27.163664   -741.07721    17.298286    23.670693    21.613939    8850.0957 
  535500    283.56198   -3891.1621   -3405.1466   -3891.1621    732.32963    33003.645            0            0   -37627.137   -27.602031    -124.1632    17.206221    23.544714    21.498906    8709.5412 
  536000     271.2342   -3844.9605   -3380.0744   -3844.9605     727.3332    33054.399            0            0   -37626.693   -27.444365    3.5738192    17.239108    23.589715    21.539997    8759.5767 
  536500    265.89573   -3851.0002    -3395.264   -3851.0002    707.38511    33067.506            0            0   -37625.891   -27.441045   -254.47148    17.239803    23.590667    21.540866    8760.6367 
  537000    262.99892   -3847.0864   -3396.3153   -3847.0864    707.38537    33071.375            0            0   -37625.847   -27.431019   -369.93268    17.241903     23.59354     21.54349    8763.8385 
  537500    284.25251   -3860.0842   -3372.8851   -3860.0842    745.58047     33018.43            0            0   -37624.095   -27.661232    701.54766    17.193937    23.527905    21.483557    8690.9007 
  538000    273.67283   -3844.1374   -3375.0715   -3844.1374    686.68791    33090.455            0            0    -37621.28   -27.352392    -844.0108    17.258408    23.616126    21.564113    8789.0311 
  538500    274.87614   -3850.6595   -3379.5312   -3850.6595    668.83539    33104.617            0            0   -37624.112   -27.540168   -1261.0711    17.219095     23.56233    21.514991    8729.1052 
  539000    277.14498   -3882.5638   -3407.5468   -3882.5638    740.66925    33002.379            0            0   -37625.613   -27.916038    760.26907    17.141464    23.456101    21.417993    8611.5737 
  539500     272.8958   -3845.6053   -3377.8712   -3845.6053    730.72208    33050.291            0            0   -37626.619   -27.726821    718.64706    17.180369    23.509338    21.466604    8670.3422 
  540000    279.36791   -3827.5785   -3348.7515   -3827.5785    708.55913    33088.004            0            0   -37624.142   -27.550714    196.69622    17.216897    23.559323    21.512246    8725.7637 
  540500    265.95446   -3818.9952   -3363.1584   -3818.9952    736.15514    33071.187            0            0   -37626.338   -27.850325    749.73447    17.154936    23.474535    21.434825    8631.8929 
  541000    271.42474    -3822.771   -3357.5583    -3822.771    713.88372    33085.812            0            0   -37622.466   -27.497953    62.049404    17.227902    23.574381    21.525996    8742.5062 
  541500     273.0046    -3800.341   -3332.4205    -3800.341    663.50591    33155.298            0            0   -37619.145   -27.730102   -505.42314    17.179691    23.508411    21.465757    8669.3163 
  542000    267.12102   -3803.7542   -3345.9179   -3803.7542     668.7687    33150.472            0            0   -37622.995   -27.937749    -349.9603    17.137023    23.450024    21.412444    8604.8815 
  542500    268.74209    -3836.405   -3375.7902    -3836.405    680.25272    33106.751            0            0   -37623.408   -27.603065   -638.64449    17.206006     23.54442    21.498637    8709.2148 
  543000    270.91709   -3824.7221   -3360.3794   -3824.7221    721.22806    33079.966            0            0   -37625.916   -27.994507    842.84745    17.125434    23.434165    21.397963    8587.4356 
  543500     275.4728   -3832.6938   -3360.5429   -3832.6938     671.9372    33120.696            0            0   -37625.327   -27.262319   -1079.5122    17.277394    23.642106    21.587836    8818.0695 
  544000    274.54741   -3777.9964   -3307.4315   -3777.9964    679.77588    33166.273            0            0   -37624.045   -27.855125    294.09312     17.15395    23.473187    21.433594    8630.4054 
  544500    263.05428   -3877.1948   -3426.3288   -3877.1948    700.73953      33046.9            0            0   -37624.835   -28.271747   -213.08564    17.069271    23.357313    21.327788    8503.2248 
  545000    282.90197   -3867.2577   -3382.3734   -3867.2577    738.09795    33018.493            0            0   -37623.848   -28.046338    606.81616    17.114877     23.41972    21.384773    8571.5655 
  545500    271.70924   -3827.0477   -3361.3473   -3827.0477    674.29962    33123.545            0            0   -37624.892   -27.375528   -1081.6312    17.253545    23.609471    21.558037    8781.6032 
  546000    261.79617   -3880.3303   -3431.6206   -3880.3303     711.0039    33033.848            0            0   -37625.182   -28.516463   -120.64148    17.020303    23.290307    21.266604    8430.2539 
  546500    263.79623   -3842.2477     -3390.11   -3842.2477     751.1116     33028.35            0            0   -37621.709   -28.193535    1042.1987     17.08504    23.378892    21.347492    8526.8138 
  547000    267.24523   -3883.6396   -3425.5904   -3883.6396    686.08914    33055.021            0            0    -37624.75   -28.478229   -401.68138    17.027917    23.300725    21.276117    8441.5721 
  547500    267.59826   -3869.3292   -3410.6749   -3869.3292    720.05467    33035.353            0            0   -37624.737   -28.271879   -2.3408518    17.069244    23.357276    21.327755    8503.1852 
  548000    266.76232   -3875.9993   -3418.7778   -3875.9993    798.51256    32949.642            0            0   -37624.154   -28.647884    2523.8176    16.994237    23.254638    21.234035    8391.5804 
  548500    266.81067   -3811.1541   -3353.8498   -3811.1541    675.16763    33137.277            0            0   -37623.599   -27.747133   -605.14691    17.176176      23.5036    21.461365     8663.995 
  549000    268.36142   -3832.3988   -3372.4365   -3832.3988    718.84363    33072.112            0            0   -37623.354   -28.115102    740.58442    17.100913    23.400611    21.367325    8550.6011 
  549500    257.42324   -3832.3391   -3391.1245   -3832.3391    683.06693    33106.086            0            0   -37621.492   -28.319298    -100.8241    17.059712    23.344232    21.315845    8488.9471 
  550000    283.23455   -3875.3097   -3389.8554   -3875.3097    701.25023    33048.753            0            0   -37625.313   -27.706563    -461.3325    17.184555    23.515066    21.471835    8676.6815 
  550500    269.44354   -3796.7844   -3334.9674   -3796.7844    698.49045    33127.415            0            0    -37622.69   -27.784227    137.81612    17.168528    23.493136    21.451809    8652.4279 
  551000    270.29033    -3793.203   -3329.9346    -3793.203    702.63789    33126.019            0            0    -37621.86   -28.234363    502.43874    17.076801    23.367617    21.337197    8514.4836 
  551500    261.58799   -3845.4639    -3397.111   -3845.4639    652.44418    33124.786            0            0   -37622.694   -27.548431   -1820.9091    17.217373    23.559974     21.51284     8726.487 
  552000    275.38377   -3816.5064    -3344.508   -3816.5064    717.11421    33089.851            0            0   -37623.471   -28.095101    712.45602     17.10497    23.406163    21.372394    8556.6885 
  552500    252.05934   -3842.0893   -3410.0682   -3842.0893    713.09114     33069.78            0            0    -37624.96   -27.725567    -74.18064    17.180628    23.509692    21.466928    8670.7342 
  553000    273.76691   -3850.6182    -3381.391   -3850.6182    712.77374    33062.252            0            0   -37625.644   -27.482826   -465.23567    17.231062    23.578706    21.529944    8747.3181 
  553500    271.57234   -3857.4236   -3391.9579   -3857.4236    742.20467    33022.573            0            0   -37622.201   -27.608235    372.03066    17.204932     23.54295    21.497295    8707.5838 
  554000    276.95231   -3832.2794   -3357.5926   -3832.2794    720.46743    33069.061            0            0   -37621.807   -27.605754     418.2873    17.205448    23.543655    21.497939    8708.3664 
  554500    270.46091   -3862.4959   -3398.9351   -3862.4959    749.22299    33012.403            0            0   -37624.122   -27.680773    618.96849     17.18989    23.522367    21.478501    8684.7654 
  555000    262.30718    -3828.026   -3378.4405    -3828.026    713.11803    33082.641            0            0   -37623.785   -27.596783    282.78126    17.207312    23.546206    21.500268    8711.1972 
  555500    271.82793   -3867.2451   -3401.3413   -3867.2451    747.36956     33008.59            0            0   -37623.204    -27.98919    906.01651    17.126518    23.435649    21.399318    8589.0669 
  556000    276.44393   -3858.4728   -3384.6574   -3858.4728    786.81874     32978.51            0            0   -37623.801   -27.663441    1594.3055     17.19348    23.527278    21.482986    8690.2068 
  556500    278.58603   -3862.5889    -3385.102   -3862.5889    714.87604    33048.221            0            0   -37625.686   -27.323221   -484.43261    17.264548    23.624527    21.571784    8798.4144 
  557000    271.94067   -3865.6012   -3399.5042   -3865.6012    820.79656    32940.741            0            0   -37627.139   -27.750153    2371.4878    17.175553    23.502747    21.460586    8663.0521 
  557500    287.08872   -3881.2097   -3389.1495   -3881.2097     703.9597    33043.509            0            0   -37628.678   -27.709463   -563.93685    17.183956    23.514246    21.471086    8675.7734 
  558000    271.70846   -3900.7013   -3435.0023   -3900.7013    778.98284    32946.683            0            0   -37626.367   -28.206486    1470.4128    17.082425    23.375313    21.344224    8522.8987 
  558500    286.40933   -3890.2994   -3399.4036   -3890.2994    751.11292    32984.792            0            0   -37626.205    -27.96575    962.33177    17.131301    23.442195    21.405295     8596.266 
  559000    260.14933   -3817.2176   -3371.3305   -3817.2176    764.56134    33040.881            0            0    -37622.66   -28.116054    1709.6616     17.10072    23.400347    21.367083    8550.3115 
  559500    278.36923    -3860.922   -3383.8067    -3860.922    706.27583    33057.051            0            0   -37624.249    -27.91879   -13.448202    17.140901    23.455331    21.417289     8610.725 
  560000    261.83372   -3849.3859   -3400.6118   -3849.3859    714.26039     33060.44            0            0   -37624.086    -27.87882    79.782995    17.149089    23.466535     21.42752    8623.0701 
  560500    261.32398   -3842.6948   -3394.7945   -3842.6948    696.36199    33084.348            0            0   -37623.404   -27.618739   -590.80297    17.202751    23.539965     21.49457    8704.2723 
  561000    272.07586   -3851.3422   -3385.0135   -3851.3422    756.36583     33017.25            0            0   -37624.958   -27.495874    714.76169    17.228336    23.574975    21.526538    8743.1672 
  561500    272.17691   -3890.3016   -3423.7997   -3890.3016     744.3531     32991.48            0            0   -37626.135   -27.606695    291.94236    17.205252    23.543388    21.497695    8708.0695 
  562000    265.04461   -3861.8858   -3407.6084   -3861.8858    707.49965    33055.162            0            0   -37624.548   -27.320492   -584.65796    17.265123    23.625314    21.572503    8799.2934 
  562500    285.32891   -3836.7967   -3347.7527   -3836.7967    678.26708    33109.507            0            0   -37624.571   -27.450543    -852.7691    17.237814    23.587945    21.538381    8757.6054 
  563000     269.9599    -3826.961    -3364.259    -3826.961    683.07562    33112.333            0            0    -37622.37   -27.580032   -724.24439    17.210795    23.550972    21.504621    8716.4883 
  563500    275.98831   -3854.3582   -3381.3237   -3854.3582    771.89167    32994.973            0            0   -37621.222   -27.824932    1466.7281    17.160152    23.481674    21.441344    8639.7703 
  564000    277.07211   -3831.5218   -3356.6296   -3831.5218    687.03856    33105.798            0            0   -37624.358   -27.513212   -584.86428    17.224716    23.570022    21.522015    8737.6574 
  564500    254.94628   -3818.0277   -3381.0585   -3818.0277    719.66711    33083.852            0            0   -37621.547   -27.160381   -107.22386    17.298983    23.671647     21.61481    8851.1654 
  565000    260.11903   -3819.8877   -3374.0526   -3819.8877    709.69362    33092.428            0            0   -37622.009   -27.562045   -17.795913    17.214538    23.556094    21.509297    8722.1765 
  565500    262.09421   -3829.7226   -3380.5021   -3829.7226     696.4392    33096.558            0            0   -37622.719   -27.966336    232.13771    17.131182    23.442031    21.405145    8596.0856 
  566000    274.84896   -3873.8661   -3402.7844   -3873.8661    725.83103    33024.475            0            0   -37624.172   -27.716737   -111.09523    17.182452    23.512189    21.469207    8673.4965 
  566500    268.04874   -3839.7621   -3380.3357   -3839.7621    636.62958    33147.567            0            0   -37623.958   -27.357997   -1945.3327     17.25723    23.614513     21.56264    8787.2305 
  567000     268.1508   -3861.8527   -3402.2515   -3861.8527    682.51213    33080.763            0            0   -37625.128   -28.011044   -550.02981    17.122063    23.429553    21.393751    8582.3658 
  567500    260.42237   -3812.9517   -3366.5967   -3812.9517    715.51927    33095.976            0            0   -37624.447   -28.015105    699.29633    17.121235     23.42842    21.392717    8581.1215 
  568000    253.79491   -3867.1192   -3432.1234   -3867.1192    725.95014    33033.288            0            0   -37626.357   -27.960315     145.2866    17.132411    23.443714    21.406682     8597.937 
  568500    292.40268   -3810.8505   -3309.6824   -3810.8505    732.59014    33078.034            0            0   -37621.474   -27.550061    945.64725    17.217034    23.559509    21.512416    8725.9707 
  569000    250.76981   -3802.5683   -3372.7574   -3802.5683    670.27126    33149.848            0            0   -37622.687   -27.673824   -755.96626    17.191329    23.524336    21.480299    8686.9464 
  569500       275.53   -3829.3935   -3357.1445   -3829.3935    768.35168    33025.855            0            0   -37623.601   -27.577395    1352.2279    17.211343    23.551723    21.505306    8717.3216 
  570000    276.13081   -3838.7716   -3365.4928   -3838.7716    755.41882    33029.446            0            0   -37623.636   -27.271233    893.19174    17.275512     23.63953    21.585483    8815.1871 
  570500    269.82686   -3806.2477   -3343.7737   -3806.2477    770.01857    33046.583            0            0   -37622.849   -27.877935    2008.1176     17.14927    23.466783    21.427747    8623.3439 
  571000    274.84515   -3781.5064   -3310.4312   -3781.5064    630.18478    33209.489            0            0    -37621.18   -27.112202   -1960.6919    17.309223     23.68566    21.627605    8866.8939 
  571500    268.82233   -3854.6859   -3393.9336   -3854.6859    759.75227     33011.35            0            0   -37625.788   -27.644873    874.23229    17.197328    23.532545    21.487794    8696.0437 
  572000    283.76103   -3826.5952   -3340.2385   -3826.5952    727.45477    33068.432            0            0   -37622.482   -27.278671    296.37602    17.273941    23.637381    21.583521    8812.7835 
  572500    263.61123   -3854.5562   -3402.7356   -3854.5562    789.79601    32983.014            0            0   -37627.366   -27.118885    1325.8466    17.307801    23.683715    21.625829    8864.7091 
  573000    265.15386   -3810.9493   -3356.4846   -3810.9493    747.77447    33062.228            0            0   -37620.952   -26.609905    332.95065    17.417457    23.833765    21.762841    9034.2685 
  573500    278.04403   -3834.0114   -3357.4535   -3834.0114    698.17963    33090.377            0            0   -37622.568   -26.788942   -916.34175    17.378568    23.780551    21.714251    8973.8903 
  574000    263.81846   -3820.3131   -3368.1373   -3820.3131     739.6134    33061.759            0            0   -37621.685   -26.929785     193.3197    17.348219    23.739021     21.67633    8926.9568 
  574500    270.90087   -3874.7907   -3410.4759   -3874.7907    738.28376    33009.713            0            0   -37622.787   -26.991571   -174.38245    17.334971    23.720893    21.659777     8906.522 
  575000    253.97766    -3838.996    -3403.687    -3838.996     721.4223    33064.832            0            0    -37625.25   -26.770867   -551.78199    17.382479    23.785901    21.719137    8979.9492 
  575500    290.96196   -3879.2976   -3380.5988   -3879.2976    761.57667    32984.002            0            0   -37624.876   -26.939574     299.8515    17.346117    23.736145    21.673704    8923.7127 
  576000    280.59357   -3869.0042   -3388.0764   -3869.0042    731.02798    33022.947            0            0    -37622.98   -27.119871   -259.43885    17.307592    23.683427    21.625567    8864.3866 
  576500    270.96448   -3877.6368    -3413.213   -3877.6368    731.25326    33015.715            0            0   -37624.605   -27.167969   -434.21544    17.297372    23.669443    21.612797    8848.6931 
  577000    271.02294   -3890.0129   -3425.4888   -3890.0129    760.01095    32974.494            0            0   -37624.518   -27.012804   -18.626107    17.330428    23.714677    21.654101    8899.5214 
  577500    280.01861   -3854.0466   -3374.1042   -3854.0466    742.33043    33027.001            0            0   -37623.378   -27.481577    440.97205    17.231323    23.579063    21.530271    8747.7158 
  578000    296.47821   -3819.8326   -3311.6791   -3819.8326    684.91727    33117.456            0            0   -37622.206   -27.327052   -503.62699    17.263741    23.623423    21.570777    8797.1811 
  578500    273.10195   -3832.5064    -3364.419   -3832.5064    701.04426    33091.179            0            0   -37624.729    -27.75812    112.48897    17.173909    23.500498    21.458533    8660.5656 
  579000    263.00414   -3807.7083   -3356.9282   -3807.7083    741.77646    33073.964            0            0   -37623.448   -27.512252    1064.7697    17.224917    23.570296    21.522266    8737.9623 
  579500    273.91679   -3891.7161   -3422.2321   -3891.7161    759.93519    32974.324            0            0   -37625.975   -27.525193    423.50001    17.222217    23.566602    21.518892    8733.8543 
  580000    268.07487   -3880.7037   -3421.2325   -3880.7037    805.60142    32940.699            0            0   -37627.004   -27.620685     1864.404    17.202347    23.539412    21.494065    8703.6589 
  580500    267.83616   -3836.5471   -3377.4851   -3836.5471    728.87157    33061.494            0            0   -37626.913   -27.273482   -147.24818    17.275037     23.63888     21.58489    8814.4602 
  581000    274.49507   -3871.1403   -3400.6651   -3871.1403    757.60889    32999.625            0            0   -37628.375   -27.582503    623.74834    17.210281    23.550269    21.503978    8715.7073 
  581500    277.45612   -3874.9113    -3399.361   -3874.9113     736.6579    33012.968            0            0   -37624.538   -27.349037    188.62482    17.259114    23.617091    21.564995    8790.1092 
  582000    272.28672   -3852.6496   -3385.9594   -3852.6496    744.93401     33025.36            0            0   -37622.944   -27.449976    431.03751    17.237933    23.588108    21.538529    8757.7863 
  582500     275.8622   -3911.1049   -3438.2865   -3911.1049    751.62475    32963.913            0            0   -37626.643   -27.574692    -12.54607    17.211906    23.552492    21.506009    8718.1763 
  583000    269.30181   -3845.1739   -3383.5998   -3845.1739    771.27791    33005.278            0            0    -37621.73   -27.420685    992.69779    17.244069    23.596504    21.546196    8767.1414 
  583500    260.93491   -3830.2823   -3383.0488   -3830.2823    742.42789    33051.623            0            0   -37624.333   -27.810579    1037.8993    17.163104    23.485713    21.445032    8644.2293 
  584000    263.70813   -3836.0343   -3384.0476   -3836.0343      685.363     33105.73            0            0   -37627.127   -27.127465   -959.57269    17.305977    23.681217    21.623549    8861.9053 
  584500    267.12254   -3809.5483   -3351.7094   -3809.5483    689.76031    33124.901            0            0   -37624.209   -27.134783   -679.95082    17.304421    23.679088    21.621605    8859.5152 
  585000     272.4437    -3821.683   -3354.7238    -3821.683     731.7406      33070.3            0            0   -37623.724   -27.394003    399.02242    17.249666    23.604162    21.553189    8775.6807 
  585500    278.31578   -3829.8089   -3352.7852   -3829.8089    718.68172    33074.334            0            0   -37622.825   -27.474941    129.10054     17.23271    23.580961    21.532004    8749.8285 
  586000      295.253   -3809.9413   -3303.8877   -3809.9413    710.48849    33102.329            0            0   -37622.758   -28.073499    648.48899    17.109356    23.412165    21.377875    8563.2725 
  586500    269.76589   -3844.9752   -3382.6057   -3844.9752    759.51911    33017.401            0            0   -37621.895   -28.310073    1549.3419    17.061564    23.346768    21.318159    8491.7132 
  587000     258.1956   -3813.6322   -3371.0938   -3813.6322    724.93688     33083.23            0            0   -37621.799    -27.95418    770.45401    17.133665    23.445428    21.408248    8599.8237 
  587500    261.61079   -3823.0805   -3374.6886   -3823.0805    673.18807    33127.673            0            0   -37623.941   -27.928215    -288.0365    17.138973    23.452692     21.41488    8607.8192 
  588000     279.7048   -3830.6852   -3351.2808   -3830.6852     689.1004    33103.492            0            0   -37623.277   -27.697194   -78.602329    17.186493    23.517717    21.474255    8679.6166 
  588500    283.19697   -3835.9622   -3350.5723   -3835.9622    704.35883    33086.585            0            0   -37626.906   -27.853059    56.250879    17.154374    23.473767    21.434124    8631.0457 
  589000     287.1852   -3837.8008   -3345.5752   -3837.8008     686.1526    33097.483            0            0   -37621.437   -27.582139   -476.83314    17.210356    23.550372    21.504073    8715.8222 
  589500    268.49721   -3808.0816   -3347.8865   -3808.0816     734.4763    33081.949            0            0   -37624.507   -27.645454    941.27344    17.197208     23.53238    21.487644    8695.8608 
  590000    281.44483   -3823.3042   -3340.9174   -3823.3042     690.2822    33113.652            0            0   -37627.238   -27.763784   -147.09654    17.172741      23.4989    21.457073    8658.7989 
  590500    274.60018   -3835.3907   -3364.7354   -3835.3907    718.81797    33069.861            0            0    -37624.07   -28.082008    666.32657    17.107628      23.4098    21.375715    8560.6779 
  591000    274.32336   -3830.8896   -3360.7088   -3830.8896    684.74858    33109.548            0            0   -37625.187   -27.530301   -570.29265    17.221152    23.565144    21.517561    8732.2337 
  591500    268.46338   -3865.6799   -3405.5428   -3865.6799    723.93764    33034.455            0            0   -37624.073   -27.522761     -188.474    17.222724    23.567296    21.519526     8734.626 
  592000    259.99366   -3851.1006   -3405.4803   -3851.1006    710.64427    33062.195            0            0    -37623.94    -27.19079    -674.8943    17.292531    23.662819    21.606749    8841.2667 
  592500    268.48493   -3828.0494   -3367.8755   -3828.0494    744.62641    33051.432            0            0   -37624.108   -27.513411    675.81293    17.224675    23.569966    21.521964    8737.5944 
  593000     274.4231   -3812.4946   -3342.1428   -3812.4946    658.05752    33153.367            0            0   -37623.919   -27.538656   -1246.4684     17.21941    23.562761    21.515385    8729.5845 
  593500    251.79011   -3871.0073   -3439.4477   -3871.0073    775.52779    32978.162            0            0   -37624.697   -28.049791     1502.755    17.114175    23.418759    21.383896    8570.5102 
  594000    271.46096   -3783.9017    -3318.627   -3783.9017    630.73519    33206.872            0            0   -37621.508    -27.86501   -1229.4464    17.151922    23.470411    21.431059     8627.344 
  594500    272.86884   -3806.5835   -3338.8956   -3806.5835    681.57487    33135.924            0            0   -37624.082   -27.745511     -368.015     17.17651    23.504058    21.461783    8664.5014 
  595000    272.81649   -3821.8344   -3354.2362   -3821.8344    679.33919    33122.335            0            0   -37623.509   -27.718552   -735.95528    17.182077    23.511676    21.468738    8672.9286 
  595500    245.62409   -3794.7731   -3373.7818   -3794.7731    667.03396    33162.187            0            0   -37623.994   -27.352633    -1358.826    17.258358    23.616056     21.56405    8788.9536 
  596000    279.73133   -3835.3968   -3355.9469   -3835.3968    752.86379    33034.462            0            0   -37622.722   -27.727013    949.78746    17.180329    23.509284    21.466555    8670.2821 
  596500    263.22918   -3817.4478    -3366.282   -3817.4478    700.36843    33106.413            0            0   -37624.229   -27.109258   -412.47649     17.30985    23.686518    21.628388    8867.8569 
  597000    277.21451   -3834.7169   -3359.5807   -3834.7169    758.39942    33031.642            0            0   -37624.758   -27.468482    1030.4454    17.234061    23.582809    21.533691    8751.8861 
  597500    287.44391   -3848.9978   -3356.3288   -3848.9978    697.53464     33079.78            0            0   -37626.312   -27.191464    -641.2777    17.292388    23.662624    21.606571    8841.0474 
  598000    270.33588   -3871.3559   -3408.0095   -3871.3559    700.74594    33048.512            0            0   -37620.614   -27.325523   -766.37244    17.264063    23.623864    21.571179    8797.6733 
  598500    275.70776   -3821.5131   -3348.9595   -3821.5131    722.83883    33078.483            0            0   -37622.835   -27.316825     305.1952    17.265895    23.626371    21.573468    8800.4745 
  599000    271.55587   -3833.6663   -3368.2288   -3833.6663    743.57412    33046.878            0            0   -37624.118   -27.408599    671.99489    17.246603    23.599972    21.549363    8771.0074 
  599500    276.44994   -3854.8177    -3380.992   -3854.8177    692.65865    33076.956            0            0   -37624.432   -27.459319   -628.59731    17.235978    23.585432    21.536086    8754.8063 
  600000    266.70606    -3829.966   -3372.8409    -3829.966    707.92042    33082.319            0            0   -37620.205   -27.521077   -35.050458    17.223076    23.567777    21.519965    8735.1606 
  600500    251.30163   -3858.9346   -3428.2123   -3858.9346    670.12801    33096.348            0            0   -37625.411   -27.544255   -1430.8291    17.218243    23.561164    21.513927      8727.81 
  601000    269.65479   -3835.5051    -3373.326   -3835.5051    690.29076    33097.469            0            0   -37623.265   -27.605539   -785.25921    17.205492    23.543716    21.497995    8708.4343 
  601500    252.26615   -3827.8958   -3395.5202   -3827.8958    682.01824    33111.191            0            0   -37621.105   -28.129361   -387.20753    17.098023    23.396657    21.363714    8546.2668 
  602000    280.66625   -3817.4787   -3336.4264   -3817.4787    742.39268     33063.56            0            0   -37623.432   -27.384601    845.79803     17.25164    23.606864    21.555656    8778.6938 
  602500     266.0756   -3816.8268   -3360.7823   -3816.8268    678.93521    33129.785            0            0   -37625.547   -27.581242    -702.5842    17.210543    23.550628    21.504306    8716.1058 
  603000    284.11551   -3869.4624   -3382.4982   -3869.4624    710.63515    33044.283            0            0    -37624.38   -27.827858   -74.956525    17.159551    23.480851    21.440592     8638.862 
  603500    280.30696   -3832.2824   -3351.8458   -3832.2824    733.31811    33058.019            0            0   -37623.619   -27.496938    676.19091    17.228114    23.574671    21.526261    8742.8288 
  604000    261.69958   -3796.6158   -3348.0717   -3796.6158     711.7143    33112.628            0            0   -37620.958   -27.493321    34.948849    17.228869    23.575705    21.527204    8743.9789 
  604500    266.27734   -3856.9716   -3400.5813   -3856.9716    705.34413    33060.627            0            0   -37622.943   -27.622324    -717.8069    17.202007    23.538947     21.49364    8703.1427 
  605000    255.19719   -3852.0208   -3414.6216   -3852.0208    754.03163    33020.595            0            0   -37626.648   -27.308897    571.96692    17.267566    23.628657    21.575555    8803.0293 
  605500    269.18495   -3825.9991   -3364.6253   -3825.9991    783.35594    33011.236            0            0   -37620.591    -27.47844    1684.5453    17.231979     23.57996     21.53109    8748.7143 
  606000    275.25308   -3865.6428   -3393.8685   -3865.6428      702.057    33054.531            0            0   -37622.231   -27.191672    -884.7909    17.292344    23.662563    21.606516    8840.9798 
  606500    266.63575    -3828.221   -3371.2165    -3828.221    779.02683    33015.209            0            0   -37622.457    -27.58791    1664.0437    17.209156     23.54873    21.502573    8713.9992 
  607000     269.0051   -3856.1817   -3395.1162   -3856.1817     717.0072    33049.226            0            0   -37622.414   -26.896378    -663.1054    17.355398    23.748845      21.6853    8938.0444 
  607500    255.53805    -3827.192   -3389.2086    -3827.192    735.53118    33061.658            0            0   -37624.381   -26.986591    6.5282878    17.336037    23.722352    21.661109    8908.1655 
  608000    267.53882    -3881.677   -3423.1246    -3881.677    831.36609    32912.425            0            0   -37625.468   -27.246254     2108.823     17.28079    23.646752    21.592078    8823.2689 
  608500    276.74402   -3860.8521   -3386.5223   -3860.8521     689.7919    33072.338            0            0   -37622.982   -27.145743   -1179.6594    17.302091    23.675901    21.618694    8855.9383 
  609000    266.61093   -3842.9644   -3386.0024   -3842.9644    730.06045    33050.241            0            0   -37623.266   -26.824141   -137.34623    17.370963    23.770144    21.704749    8962.1144 
  609500    266.36855   -3894.5166     -3437.97   -3894.5166    771.10143     32957.99            0            0   -37623.608   -27.379698     544.7083    17.252669    23.608272    21.556942    8780.2656 
  610000    260.80923   -3842.7846   -3395.7666   -3842.7846    735.83506     33043.82            0            0   -37622.439   -26.587582   -478.90903     17.42233    23.840433     21.76893    9041.8535 
  610500    255.05535   -3904.4265   -3467.2703   -3904.4265    777.35416    32943.757            0            0   -37625.537   -27.241742    610.78838    17.281744    23.648057     21.59327    8824.7303 
  611000    274.02623   -3851.1107   -3381.4391   -3851.1107     774.4401    33000.289            0            0    -37625.84   -26.891554    822.20708    17.356436    23.750265    21.686597    8939.6478 
  611500    257.45863   -3879.5308   -3438.2555   -3879.5308    720.61647    33024.989            0            0   -37625.136    -26.66775   -1061.9457    17.404854     23.81652    21.747095    9014.6721 
  612000    266.88984   -3850.8513   -3393.4112   -3850.8513    716.99723    33055.799            0            0   -37623.647   -26.677658   -832.66708    17.402699    23.813571    21.744402    9011.3241 
  612500    270.78646    -3921.226   -3457.1073    -3921.226     745.2958    32954.361            0            0   -37620.883   -26.710147   -894.97311     17.39564    23.803912    21.735582    9000.3631 
  613000    281.58623   -3870.9939   -3388.3647   -3870.9939    748.70828    33004.929            0            0   -37624.632   -27.251925    212.98171    17.279591    23.645111     21.59058    8821.4327 
  613500    250.99747   -3870.0882   -3439.8872   -3870.0882       777.82    32978.195            0            0   -37626.103   -27.666238    985.16893      17.1929    23.526486    21.482262    8689.3282 
  614000    264.34352   -3838.3977    -3385.322   -3838.3977    711.61156    33075.856            0            0   -37625.865   -27.416204   -73.386916    17.245008    23.597789     21.54737    8768.5745 
  614500    297.47872   -3911.3193    -3401.451   -3911.3193    726.93757    32989.513            0            0    -37627.77   -27.595908   -216.06327    17.207494    23.546455    21.500496    8711.4736 
  615000    266.76127   -3871.3018   -3414.0821   -3871.3018    772.20304    32979.616            0            0    -37623.12    -28.09823    1375.7069    17.104335    23.405294    21.371601    8555.7355 
  615500    271.96216   -3875.9263   -3409.7925   -3875.9263    739.71013    33010.278            0            0   -37625.914   -28.230311    773.77299    17.077618    23.368735    21.338218    8515.7057 
  616000    271.66086   -3860.8075   -3395.1901   -3860.8075    740.98681    33022.416            0            0    -37624.21   -28.279942    1035.1575    17.067622    23.355057    21.325728    8500.7609 
  616500    268.48484    -3874.214   -3414.0402    -3874.214    728.75317    33021.222            0            0   -37624.189   -28.116857    599.88321    17.100557    23.400124     21.36688    8550.0673 
  617000    271.59209   -3814.5072   -3349.0076   -3814.5072    645.69878    33163.203            0            0   -37623.409   -27.413974   -1326.9308    17.245476    23.598429    21.547954    8769.2877 
  617500    269.03273    -3860.525   -3399.4121    -3860.525    691.32508    33074.416            0            0   -37626.266   -27.547923   -760.81783    17.217479    23.560119    21.512972    8726.6478 
  618000    276.94259   -3873.7016   -3399.0314   -3873.7016    713.46105    33039.099            0            0   -37626.261   -27.826533   -243.39103    17.159823    23.481224    21.440933    8639.2734 
  618500    273.25282   -3878.4916   -3410.1456   -3878.4916    706.04659    33042.179            0            0   -37626.717    -27.74564   -507.18362    17.176484    23.504022    21.461749    8664.4612 
  619000    269.16775   -3861.9115   -3400.5672   -3861.9115    733.20692    33031.205            0            0   -37626.323   -28.178971    907.90651    17.087983    23.382918    21.351169    8531.2207 
  619500    276.49283    -3877.476   -3403.5768    -3877.476    743.25055    33004.076            0            0   -37624.803   -27.892163    603.19259    17.146354    23.462792    21.424103     8618.945 
  620000    275.40952   -3891.8164   -3419.7739   -3891.8164    796.83622    32937.312            0            0   -37625.964    -28.15046     2278.566     17.09375     23.39081    21.358375    8539.8612 
  620500    272.78073   -3856.4245   -3388.8876   -3856.4245    675.36342     33091.11            0            0   -37622.898   -27.401958   -1202.6235    17.247996    23.601878    21.551103     8773.133 
  621000    271.17674   -3844.9708   -3380.1832   -3844.9708    709.05737    33069.271            0            0   -37623.299   -26.739027   -659.18384    17.389375    23.795339    21.727754    8990.6422 
  621500    272.01751   -3850.2379   -3384.0091   -3850.2379    729.67751    33046.675            0            0   -37626.591    -26.97944   -386.05294    17.337569    23.724448    21.663023    8910.5269 
  622000    267.54933   -3886.0008   -3427.4304   -3886.0008    802.03186     32934.83            0            0   -37622.863   -27.220014    1551.8155    17.286341    23.654348    21.599014    8831.7745 
  622500    261.87228   -3879.2164   -3430.3762   -3879.2164    751.79329    32995.883            0            0   -37626.893   -27.107903   -155.33861    17.310138    23.686912    21.628749    8868.3002 
  623000    276.62946   -3873.4802   -3399.3468   -3873.4802    736.33905    33013.927            0            0   -37623.746   -26.962553    -374.5514    17.341188      23.7294    21.667545    8916.1075 
  623500    258.02881   -3884.1255   -3441.8729   -3884.1255    689.72298     33052.76            0            0   -37626.608   -27.073125   -1460.2544    17.317547    23.697051    21.638006    8879.6924 
  624000     269.8383   -3872.5403   -3410.0467   -3872.5403    749.87104    33003.474            0            0   -37625.885   -27.596585     400.8986    17.207353    23.546262     21.50032      8711.26 
  624500    251.47802   -3836.0159   -3404.9912   -3836.0159    708.47243    33081.326            0            0   -37625.814   -27.595539   -350.22557     17.20757     23.54656    21.500592    8711.5901 
  625000     276.1999   -3846.2937   -3372.8965   -3846.2937    678.39813    33098.924            0            0   -37623.616   -27.563518   -873.86952    17.214231    23.555674    21.508914    8721.7103 
  625500    266.78174    -3823.342   -3366.0872    -3823.342    634.95926    33164.531            0            0   -37622.832    -27.30159   -1701.8686    17.269107    23.630765     21.57748    8805.3856 
  626000    264.96591   -3874.3558   -3420.2134   -3874.3558     729.7225    33023.609            0            0   -37627.687   -27.095128   -340.89478    17.312858    23.690634    21.632148    8872.4816 
  626500    272.51818   -3834.8216   -3367.7348   -3834.8216    654.29697    33137.018            0            0   -37626.137    -27.06927   -1668.2343    17.318369    23.698175    21.639033    8880.9569 
  627000    270.92817   -3888.0271   -3423.6655   -3888.0271    720.59077    33016.521            0            0   -37625.138   -27.270979   -629.57995    17.275565    23.639603    21.585551    8815.2693 
  627500    259.40452   -3847.2363   -3402.6259   -3847.2363    709.50027    33066.274            0            0   -37623.011   -27.392182   -301.06104    17.250048    23.604685    21.553667     8776.264 
  628000    265.45159    -3843.283   -3388.3081    -3843.283    737.79752    33042.312            0            0   -37623.393   -27.525665    457.75772    17.222118    23.566467    21.518769    8733.7044 
  628500    267.60102   -3854.0503   -3395.3913   -3854.0503    741.69022    33026.696            0            0   -37622.436   -27.490704    409.23065    17.229416    23.576453    21.527888    8744.8114 
  629000    265.74015   -3849.4296   -3393.9601   -3849.4296    682.76445    33091.268            0            0   -37623.462   -27.227527    -1141.853    17.284751    23.652172    21.597027    8829.3376 
  629500    270.60574   -3837.1356   -3373.3266   -3837.1356    671.99184    33114.312            0            0   -37623.439    -27.45019   -942.36328    17.237888    23.588046    21.538473     8757.718 
  630000    271.27405   -3854.2327   -3389.2782   -3854.2327    692.89293    33075.753            0            0   -37622.878   -27.276849   -828.09488    17.274326    23.637907    21.584002    8813.3722 
  630500    270.30668   -3841.8702   -3378.5738   -3841.8702    722.13076    33058.997            0            0   -37622.998   -27.083851   -206.83103    17.315261    23.693922     21.63515    8876.1759 
  631000    269.87232   -3834.7323   -3372.1804   -3834.7323    746.03548     33041.85            0            0   -37622.618   -27.555953    763.72309    17.215806     23.55783    21.510882    8724.1049 
  631500    290.31269   -3836.2343   -3338.6482   -3836.2343    667.39962    33119.068            0            0   -37622.702   -27.536001   -1168.1774    17.219963    23.563518    21.516077     8730.426 
  632000    255.51846   -3830.9972   -3393.0473   -3830.9972    677.14892    33115.047            0            0   -37623.194   -27.194855   -1214.4051     17.29167     23.66164    21.605672     8839.945 
  632500    280.00126   -3830.5077   -3350.5951   -3830.5077    713.75531    33080.005            0            0   -37624.268   -27.218825   -266.64257    17.286592    23.654692    21.599328    8832.1601 
  633000    275.65796   -3892.2161   -3419.7478   -3892.2161    759.23081    32974.503            0            0    -37625.95   -27.522672    414.66293    17.222743    23.567321    21.519549    8734.6541 
  633500    253.11911   -3880.2571   -3446.4196   -3880.2571    707.98259    33033.291            0            0    -37621.53   -27.418849   -794.06282    17.244454     23.59703    21.546677    8767.7283 
  634000    257.48314   -3876.4041   -3435.0868   -3876.4041    753.68115    32995.412            0            0   -37625.497   -27.383571    270.97924    17.251856    23.607159    21.555926    8779.0239 
  634500    256.14624   -3824.4967   -3385.4708   -3824.4967    667.38312    33131.383            0            0   -37623.262   -27.049631   -1494.0944     17.32256    23.703909    21.644269    8887.4049 
  635000    262.84531   -3877.1761   -3426.6683   -3877.1761    712.72347     33033.26            0            0   -37623.159   -26.991863   -710.17076    17.334909    23.720808    21.659699    8906.4257 
  635500     279.8842    -3841.776   -3362.0641    -3841.776     682.0015    33102.145            0            0   -37625.922    -27.30333    -638.9017     17.26874    23.630263    21.577022    8804.8244 
  636000    256.19245     -3815.36    -3376.255     -3815.36    756.95242    33052.338            0            0   -37624.651   -27.087993    872.73719    17.314378    23.692714    21.634047    8874.8185 
  636500    264.10647   -3882.1353   -3429.4659   -3882.1353    784.00845    32959.975            0            0   -37626.119   -27.772539    1439.1927    17.170937    23.496431    21.454818    8656.0694 
  637000    269.59871   -3857.8105   -3395.7275   -3857.8105    753.09902    33017.484            0            0   -37628.393   -27.974304    1221.5258    17.129555    23.439805    21.403113    8593.6372 
  637500      258.481   -3831.8784   -3388.8508   -3831.8784    675.73821    33118.356            0            0   -37625.972   -28.001327   -354.52524    17.124043    23.432262    21.396226     8585.344 
  638000    263.15495   -3874.0478   -3423.0092   -3874.0478    722.79187    33030.864            0            0   -37627.704   -28.325609    500.89949    17.058445    23.342499    21.314261    8487.0558 
  638500    251.37671   -3848.8522   -3418.0011   -3848.8522     694.5289    33082.506            0            0   -37625.887   -27.473116     -473.669    17.233092    23.581483    21.532481    8750.4099 
  639000    266.03211   -3834.4961   -3378.5262   -3834.4961    691.97154    33100.695            0            0   -37627.163   -27.385689   -661.82279    17.251411    23.606551     21.55537    8778.3448 
  639500    265.96831   -3847.9418   -3392.0813   -3847.9418    720.15821    33057.601            0            0   -37625.701    -27.69148    107.22295    17.187675    23.519335    21.475732    8681.4076 
  640000     272.8467   -3807.8912   -3340.2413   -3807.8912    658.45617    33155.921            0            0   -37622.269   -28.376944   -412.51129    17.048152    23.328414    21.301401    8471.7024 
  640500    275.31707   -3800.8941   -3329.0101   -3800.8941    639.39801    33184.497            0            0   -37624.789   -27.803295   -1203.9062    17.164603    23.487764    21.446904    8646.4941 
  641000    273.93088   -3812.0344   -3342.5263   -3812.0344    697.19153    33112.324            0            0    -37621.55   -28.035704    94.386016    17.117041    23.422681    21.387477    8574.8167 
  641500    268.57575   -3804.4742   -3344.1445   -3804.4742    685.21958    33135.992            0            0   -37625.685    -27.51634   -329.83196    17.224064    23.569129      21.5212    8736.6644 
  642000    261.16969   -3832.7595   -3385.1236   -3832.7595    712.72412    33079.992            0            0   -37625.475   -28.154819    268.62456    17.092868    23.389603    21.357273    8538.5392 
  642500    271.66361   -3824.3399   -3358.7178   -3824.3399    667.54223    33133.584            0            0   -37625.467   -27.690225   -836.22079    17.187934     23.51969    21.476057     8681.801 
  643000    268.66867   -3821.2259    -3360.737   -3821.2259    664.78475    33137.146            0            0   -37623.157   -27.331352   -1297.8668    17.262836    23.622184    21.569645    8795.7969 
  643500    277.36456   -3849.3224    -3373.929   -3849.3224    758.34624    33019.414            0            0   -37627.083   -27.793983    1036.8322    17.166519    23.490386    21.449299    8649.3907 
  644000    287.69444   -3828.7364   -3335.6379   -3828.7364    730.64914    33064.086            0            0   -37623.472   -27.328762    438.96086    17.263381    23.622931    21.570327    8796.6306 
  644500     275.9437    -3830.421    -3357.463    -3830.421    714.18992    33080.091            0            0   -37624.702   -27.282615   -107.41658    17.273109    23.636242    21.582481    8811.5095 
  645000    282.05253   -3869.2026   -3385.7742   -3869.2026    689.69999    33063.647            0            0   -37622.549   -27.568579   -1024.5057    17.213178    23.554233    21.507598    8720.1094 
  645500    277.84146   -3846.7528    -3370.542   -3846.7528    756.09568    33020.523            0            0   -37623.371   -27.922786    1295.1749    17.140083    23.454212    21.416268    8609.4926 
  646000    255.78335   -3847.2592   -3408.8552   -3847.2592    729.74665    33046.368            0            0   -37623.374   -27.192343   -1.9560817    17.292202    23.662369    21.606338    8840.7615 
  646500    256.49595   -3869.0622   -3429.4369   -3869.0622     791.4721     32961.03            0            0   -37621.565   -27.362995    1382.1278    17.256179    23.613075    21.561328    8785.6255 
  647000    262.58958   -3840.6502   -3390.5807   -3840.6502    740.63104    33042.597            0            0   -37623.878   -27.327099    542.65435    17.263731     23.62341    21.570764    8797.1658 
  647500    265.68475   -3890.7845     -3435.41   -3890.7845    698.28369    33034.992            0            0    -37624.06   -27.082098    -1469.186    17.315635    23.694433    21.635616    8876.7504 
  648000    267.79517   -3896.2005   -3437.2088   -3896.2005     754.2181    32974.256            0            0   -37624.675   -27.499501    346.04884    17.227579    23.573939    21.525592     8742.014 
  648500    260.77304   -3900.8146   -3453.8586   -3900.8146    746.81791    32973.268            0            0     -37620.9   -27.107585   -351.11985    17.310206    23.687005    21.628833    8868.4042 
  649000    280.75979   -3883.6449   -3402.4323   -3883.6449     754.4203    32984.267            0            0   -37622.332   -27.368964     213.9216    17.254924    23.611358     21.55976    8783.7092 
  649500    272.38692   -3869.5278    -3402.666   -3869.5278    801.89495    32953.033            0            0   -37624.456   -27.537861    1745.4075    17.219576    23.562988    21.515592    8729.8365 
  650000     275.5308   -3876.5022   -3404.2518   -3876.5022    676.54834    33070.838            0            0   -37623.888   -26.547095   -2255.0338    17.431182    23.852547    21.779992    9055.6435 
  650500    278.71246   -3865.3721   -3387.6685   -3865.3721    760.53333    32998.667            0            0   -37624.573    -26.87925    177.79326    17.359084    23.753888    21.689905      8943.74 
  651000     294.1537   -3891.9079   -3387.7385   -3891.9079    772.85025    32959.254            0            0   -37624.013   -26.904963     409.4004    17.353552    23.746319    21.682993    8935.1925 
  651500    277.68347   -3851.7759   -3375.8359   -3851.7759    773.49821      32999.2            0            0   -37624.474   -27.143767    825.29092    17.302511    23.676475    21.619219    8856.5828 
  652000    271.17081   -3857.0402   -3392.2627   -3857.0402    736.21815    33031.236            0            0   -37624.494   -27.033796   -21.689382    17.325941    23.708537    21.648494    8892.6107 
  652500     262.6793   -3877.2929   -3427.0696   -3877.2929    708.56275     33035.76            0            0   -37621.616    -26.77518   -923.64955    17.381545    23.784624    21.717971    8978.5027 
  653000    274.47827   -3823.8371   -3353.3908   -3823.8371    741.95349    33054.902            0            0   -37620.693   -27.180856    607.33051    17.294638    23.665702    21.609381     8844.498 
  653500    276.18047   -3827.6015   -3354.2377   -3827.6015    785.84737    33008.243            0            0   -37621.692    -27.51366    1612.6064    17.224623    23.569894    21.521899    8737.5152 
  654000    259.37552   -3853.1063   -3408.5455   -3853.1063    721.32296    33051.565            0            0   -37625.994   -26.912891   -689.17134    17.351848    23.743987    21.680864    8932.5603 
  654500    265.37369   -3869.9364    -3415.095   -3869.9364    732.31335    33022.297            0            0   -37624.547   -27.054516   -691.34122    17.321517    23.702483    21.642966    8885.8002 
  655000    260.96956   -3860.9082   -3413.6153   -3860.9082    755.21431     33009.25            0            0   -37625.373   -27.426419    387.07044    17.242867    23.594859    21.544694    8765.3083 
  655500    257.81567   -3890.7562   -3448.8689   -3890.7562    750.03215    32984.229            0            0   -37625.018   -27.513091    58.888248    17.224742    23.570057    21.522047    8737.6959 
  656000    257.49572   -3888.9077   -3447.5688   -3888.9077    751.07886    32986.984            0            0    -37626.97   -27.012522   -230.47942    17.330488    23.714759    21.654176     8899.614 
  656500    263.66806   -3857.5136   -3405.5956   -3857.5136    789.49439    32977.865            0            0   -37624.873   -27.071703    1152.1136    17.317851    23.697466    21.638385    8880.1588 
  657000    273.71716   -3892.2506   -3423.1088   -3892.2506    716.93185    33013.845            0            0   -37623.028   -27.052024   -1132.8061    17.322049     23.70321    21.643631    8886.6187 
  657500    283.52729   -3854.3678   -3368.4118   -3854.3678     759.3629    33010.837            0            0   -37624.568   -27.909714    1259.7869    17.142759    23.457873    21.419611    8613.5251 
  658000    246.17738   -3838.7591   -3416.8195   -3838.7591    723.09337     33062.26            0            0   -37624.112   -27.335784   -125.77631    17.261903    23.620908    21.568479    8794.3708 
  658500    278.74642   -3854.1756   -3376.4138   -3854.1756    680.42456    33088.631            0            0   -37623.231   -27.118711   -1441.2855    17.307839    23.683765    21.625875     8864.766 
  659000    269.42694   -3845.1668   -3383.3782   -3845.1668    728.44742    33049.967            0            0   -37623.581   -27.642532    297.22086    17.197814    23.533209    21.488401    8696.7801 
  659500     266.3494   -3835.0185   -3378.5048   -3835.0185    753.81044    33037.281            0            0    -37626.11    -27.69893    901.93942    17.186134    23.517226    21.473807    8679.0725 
  660000    274.61626   -3838.4154   -3367.7326   -3838.4154    673.29254    33110.576            0            0   -37622.284   -27.758605   -936.65569    17.173809    23.500362    21.458408    8660.4143 
  660500     277.6502   -3840.6386   -3364.7557   -3840.6386     767.0839    33016.079            0            0   -37623.801   -28.489205    2075.8538     17.02573    23.297732    21.273385    8438.3199 
  661000    264.42809   -3816.6738   -3363.4531   -3816.6738    677.47435    33125.804            0            0   -37619.952   -27.994216   -396.79638    17.125493    23.434246    21.398037    8587.5249 
  661500    266.64602   -3838.4185   -3381.3964   -3838.4185    699.33784    33086.532            0            0   -37624.289   -28.048074   -257.00509    17.114524    23.419237    21.384332    8571.0349 
  662000    287.03726    -3820.986   -3329.0139    -3820.986    746.45586    33057.935            0            0   -37625.377    -27.77155    1227.9872     17.17114     23.49671    21.455073    8656.3777 
  662500    285.72136   -3856.2179   -3366.5012   -3856.2179    705.41519    33064.588            0            0   -37626.221   -28.362769    188.11336    17.050991      23.3323    21.304949    8475.9362 
  663000    270.98399   -3860.8945   -3396.4372   -3860.8945    658.80521    33102.944            0            0   -37622.644   -27.883468   -1304.9374    17.148136    23.465231    21.426329    8621.6328 
  663500     285.6634    -3851.872   -3362.2548    -3851.872    739.48161    33031.039            0            0   -37622.393   -28.003464    741.62961    17.123607    23.431666    21.395681    8584.6889 
  664000    263.32201   -3838.0224   -3386.6974   -3838.0224    702.70216    33082.676            0            0     -37623.4    -27.89259    -129.4293    17.146266    23.462673    21.423993    8618.8133 
  664500    272.88859   -3840.2071   -3372.4854   -3840.2071    686.12505    33098.047            0            0   -37624.379   -27.797834   -523.77509    17.165727    23.489302    21.448309    8648.1928 
  665000    269.51556   -3855.3667   -3393.4263   -3855.3667    723.35498    33045.781            0            0   -37624.502   -28.459649    747.93417    17.031622    23.305794    21.280746    8447.0831 
  665500    268.99072   -3820.5642   -3359.5233   -3820.5642    681.26401    33118.201            0            0   -37620.029   -28.098374     -60.2865    17.104306    23.405254    21.371564    8555.6916 
  666000    258.36352   -3811.1206   -3368.2944   -3811.1206    652.31061    33157.945            0            0   -37621.376   -27.919329   -1020.3526    17.140791     23.45518    21.417152    8610.5588 
  666500    265.80878   -3847.4778   -3391.8906   -3847.4778    703.47612    33076.276            0            0    -37627.23   -27.865737   -137.16378    17.151772    23.470207    21.430873    8627.1187 
  667000    263.85766   -3861.3748   -3409.1318   -3861.3748    696.37672    33065.483            0            0   -37623.234    -27.59347   -525.56307       17.208    23.547148    21.501129    8712.2431 
  667500    276.10361   -3858.9666   -3385.7345   -3858.9666    762.91745    33003.057            0            0   -37624.941   -27.201805    828.89006    17.290197    23.659625    21.603832    8837.6864 
  668000    273.03228   -3869.0091   -3401.0411   -3869.0091    708.04849     33046.61            0            0   -37623.668   -27.281076   -788.72551    17.273434    23.636687    21.582887    8812.0067 
  668500    282.13428   -3878.0616   -3394.4931   -3878.0616     705.8126    33041.235            0            0   -37625.109   -27.477659   -537.25757    17.232142    23.580184    21.531294    8748.9631 
  669000      273.693   -3894.8451   -3425.7447   -3894.8451    751.62361     32978.03            0            0   -37624.499   -28.015363    828.76303    17.121183    23.428349    21.392652    8581.0426 
  669500     275.9675   -3851.7223   -3378.7235   -3851.7223    662.08629    33108.062            0            0   -37621.871   -27.363711   -1541.9269    17.256029    23.612869    21.561139    8785.3956 
  670000    280.64384    -3886.305   -3405.2911    -3886.305    782.26788    32955.897            0            0    -37624.47   -27.394599    1020.4893    17.249541    23.603991    21.553033    8775.4899 
  670500    270.84029   -3863.7654   -3399.5544   -3863.7654    682.39478    33082.669            0            0   -37628.829   -27.045949   -1425.0914    17.323346    23.704985    21.645251    8888.6147 
  671000    269.79117   -3868.0304   -3405.6175   -3868.0304    739.62255    33018.885            0            0   -37626.537   -27.453352    322.08766    17.237226    23.587141    21.537647    8756.7094 
  671500    262.43381   -3851.5448   -3401.7422   -3851.5448    676.10916    33098.225            0            0   -37625.879   -26.834915   -1604.0959    17.368638    23.766963    21.701844    8958.5163 
  672000    268.77514   -3821.7926   -3361.1212   -3821.7926    754.72592    33045.455            0            0   -37621.974   -27.389352    1207.8987    17.250642    23.605498    21.554409    8777.1708 
  672500    277.15615   -3862.9598   -3387.9237   -3862.9598    738.47944     33024.43            0            0   -37625.869   -27.698915    328.51151    17.186137    23.517231    21.473811    8679.0774 
  673000    261.27557   -3841.0213   -3393.2039   -3841.0213    701.49204    33081.424            0            0   -37623.938   -27.941517   -1.8244731    17.136253     23.44897    21.411481    8603.7214 
  673500    255.05222   -3838.3295   -3401.1788   -3838.3295     740.2972    33047.511            0            0   -37626.138   -28.269456    992.51225    17.069732    23.357944    21.328365    8503.9141 
  674000    268.66098   -3853.2203   -3392.7446   -3853.2203    660.19894    33111.839            0            0   -37625.258   -28.376321   -1002.2585    17.048277    23.328585    21.301557    8471.8884 
  674500    259.72003   -3840.5324   -3395.3811   -3840.5324     673.5791    33109.008            0            0    -37623.12   -28.181519   -746.25192    17.087468    23.382214    21.350526    8530.4493 
  675000    268.82102   -3884.3726   -3423.6226   -3884.3726    739.10284    32999.918            0            0   -37623.394   -28.170574    554.35779    17.089681    23.385242     21.35329    8533.7637 
  675500     273.1912   -3906.6917   -3438.4513   -3906.6917    722.46084    32997.748            0            0     -37626.9   -28.005234   -341.85507    17.123247    23.431173     21.39523    8584.1461 
  676000    274.39728   -3828.9315   -3358.6239   -3828.9315    682.04415    33114.506            0            0   -37625.482   -27.515629   -458.81085    17.224212    23.569332    21.521385      8736.89 
  676500    268.12247   -3812.5591   -3353.0064   -3812.5591    718.75081    33093.019            0            0   -37624.329   -27.554711    328.68855    17.216065    23.558184    21.511206    8724.4982 
  677000    259.89124   -3826.2078   -3380.7631   -3826.2078    741.65688    33055.316            0            0   -37623.181   -27.945773    1005.3578    17.135382    23.447779    21.410394    8602.4108 
  677500    274.52029   -3826.8768   -3356.3584   -3826.8768    696.00985    33099.353            0            0    -37622.24   -27.344859   -395.54985    17.259993    23.618294    21.566093    8791.4522 
  678000    251.08457   -3855.2301   -3424.8797   -3855.2301    724.27292    33046.469            0            0   -37625.972   -27.836536    114.56838    17.157768    23.478411    21.438364    8636.1687 
  678500    266.70209   -3826.8267   -3369.7084   -3826.8267    684.55006    33110.255            0            0   -37621.632   -27.825104   -390.26321    17.160117    23.481626      21.4413    8639.7171 
  679000    274.30833   -3836.2591   -3366.1041   -3836.2591    680.39975    33105.034            0            0   -37621.693   -28.304066   -278.98598    17.062771    23.348419    21.319668    8493.5154 
  679500    268.90864   -3836.9721   -3376.0719   -3836.9721    712.82916    33074.277            0            0   -37624.078   -27.793954    251.53437    17.166525    23.490395    21.449307    8649.3998 
  680000    266.96488   -3812.6983   -3355.1296   -3812.6983    724.62851    33089.854            0            0   -37627.181   -28.124888    965.88817    17.098929    23.397897    21.364846    8547.6259 
  680500     276.0796   -3843.4542   -3370.2632   -3843.4542    697.33113    33082.441            0            0   -37623.226   -27.603343   -257.39213    17.205948    23.544341    21.498565     8709.127 
  681000    271.60956   -3813.8142   -3348.2847   -3813.8142    758.67121     33052.15            0            0   -37624.635   -27.930048    1862.1529    17.138598    23.452179    21.414411    8607.2541 
  681500    285.72622   -3804.8044   -3315.0794   -3804.8044     720.3097    33098.993            0            0   -37624.107   -28.033879     1071.508    17.117412    23.423189    21.387941    8575.3749 
  682000    258.32014   -3822.6967   -3379.9448   -3822.6967    691.75509    33112.875            0            0   -37627.327   -27.356626   -478.36185    17.257518    23.614907       21.563    8787.6707 
  682500    280.55711   -3829.4434   -3348.5781   -3829.4434    705.19284    33085.776            0            0   -37620.412   -27.466414   -155.83195    17.234493    23.583401    21.534232    8752.5448 
  683000    274.39791   -3890.7574   -3420.4487   -3890.7574    740.03233    32991.461            0            0   -37622.251   -27.560191   -53.410262    17.214924    23.556622     21.50978    8722.7633 
  683500     275.6447    -3860.108   -3387.6624    -3860.108    711.66551    33052.651            0            0   -37624.424   -27.768885   -106.89507     17.17169    23.497462     21.45576    8657.2084 
  684000    277.65405   -3829.6029   -3353.7133   -3829.6029    652.43835    33140.303            0            0   -37622.344   -27.810077   -1241.3562    17.163207    23.485854    21.445161    8644.3855 
  684500    285.76419   -3859.7388   -3369.9487   -3859.7388    726.88026    33035.731            0            0    -37622.35   -27.629587    283.37553    17.200499    23.536884    21.491756    8700.8547 
  685000    276.93774   -3844.7715   -3370.1097   -3844.7715    704.89465    33073.582            0            0   -37623.248   -27.395896   -399.12171    17.249268    23.603619    21.552693    8775.0743 
  685500     271.4508   -3861.9294    -3396.672   -3861.9294    703.33834    33058.438            0            0   -37623.705   -27.689126    -449.7293    17.188162    23.520001    21.476341    8682.1455 
  686000    252.58708   -3873.8826    -3440.957   -3873.8826    732.90534    33019.585            0            0   -37626.373   -27.763215    84.348728    17.172859    23.499061     21.45722    8658.9763 
  686500    286.05634   -3856.3008   -3366.0101   -3856.3008     719.9092    33047.022            0            0   -37623.232   -27.246355   -449.98798    17.280768    23.646723    21.592051    8823.2361 
  687000     268.8676   -3846.3532   -3385.5233   -3846.3532    754.59196    33021.385            0            0   -37622.331   -27.229804    376.34768    17.284269    23.651513    21.596425    8828.5992 
  687500    279.80651   -3841.0848    -3361.506   -3841.0848    661.28172    33120.763            0            0    -37623.13   -26.867006   -1821.3815     17.36172    23.757496      21.6932    8947.8159 
  688000    270.82888   -3833.6299   -3369.4385   -3833.6299    704.28766    33089.023            0            0   -37626.941     -27.0699   -560.33154    17.318235    23.697992    21.638866    8880.7503 
  688500     275.5991    -3872.819   -3400.4516    -3872.819    750.01734    33003.354            0            0    -37626.19   -27.451309    390.60788    17.237654    23.587726    21.538181    8757.3609 
  689000    262.61604   -3835.0674   -3384.9524   -3835.0674    741.65006    33047.011            0            0   -37623.728   -27.085417    272.51783    17.314927    23.693465    21.634732    8875.6626 
  689500    281.98808   -3827.2161   -3343.8982   -3827.2161     679.6308    33117.534            0            0   -37624.381    -27.16523   -1059.6687    17.297953    23.670238    21.613524    8849.5853 
  690000    275.88897   -3861.3273   -3388.4631   -3861.3273    789.01229    32977.148            0            0   -37627.488   -27.367959     1547.725    17.255136    23.611647    21.560024    8784.0319 
  690500    268.56124   -3865.9499   -3405.6452   -3865.9499    755.12948    33003.071            0            0    -37624.15   -27.046711    224.02002    17.323183    23.704762    21.645048    8888.3644 
  691000    277.54175    -3844.151   -3368.4539    -3844.151    754.25919    33025.381            0            0   -37623.791   -27.079363    688.15703    17.316217    23.695231    21.636345    8877.6469 
  691500    261.51308   -3853.1724   -3404.9479   -3853.1724    692.16983    33076.496            0            0   -37621.839   -27.494659   -537.22261     17.22859    23.575323    21.526855    8743.5537 
  692000    274.56523   -3869.2433   -3398.6479   -3869.2433    761.63245    32993.981            0            0   -37624.856   -27.569749    885.17221    17.212934      23.5539    21.507294    8719.7392 
  692500    288.04135   -3883.5957   -3389.9027   -3883.5957    689.89522    33050.272            0            0   -37623.762   -27.437071   -1086.9516    17.240635    23.591805    21.541906    8761.9053 
  693000    270.92263   -3865.6806   -3401.3285   -3865.6806     741.9414    33018.308            0            0    -37625.93   -27.337325    190.06084    17.261578    23.620464    21.568074     8793.875 
  693500    272.00626   -3883.3244    -3417.115   -3883.3244    727.45854    33014.204            0            0   -37624.987   -28.087232    388.96147    17.106567    23.408349     21.37439    8559.0856 
  694000    272.87571   -3852.3227    -3384.623   -3852.3227    712.86722    33059.003            0            0   -37624.193   -27.973073    72.335733    17.129806    23.440149    21.403427    8594.0156 
  694500    281.06865   -3843.7633   -3362.0213   -3843.7633    717.07315     33063.07            0            0   -37623.907   -27.939229    289.44622     17.13672     23.44961    21.412066    8604.4259 
  695000    281.46104   -3882.5388   -3400.1242   -3882.5388      729.738    33015.388            0            0   -37627.665   -27.833422    71.748731    17.158407    23.479286    21.439163    8637.1349 
  695500     271.8143    -3869.329   -3403.4486    -3869.329    673.94072    33080.148            0            0   -37623.417    -27.88287   -933.59314    17.148259    23.465399    21.426483    8621.8179 
  696000      273.604   -3848.1543   -3379.2065   -3848.1543    665.21158    33109.771            0            0   -37623.137   -27.350816   -1153.7411     17.25874    23.616579    21.564527    8789.5373 
  696500    252.55315   -3883.0287   -3450.1612   -3883.0287    775.34392    32967.243            0            0   -37625.616   -27.560172    1082.9143    17.214928    23.556628    21.509785    8722.7694 
  697000    268.23242   -3871.4303   -3411.6891   -3871.4303    690.54768      33065.9            0            0   -37627.878    -26.98163   -1218.1069      17.3371    23.723806    21.662437    8909.8037 
  697500    255.91633   -3861.0851   -3422.4533   -3861.0851     676.1448    33087.561            0            0   -37624.791   -26.931294   -1649.7043    17.347894    23.738577    21.675925    8926.4564 
  698000     285.0932   -3849.7544   -3361.1144   -3849.7544     708.1191     33065.56            0            0   -37623.434   -27.032513   -491.72477    17.326215    23.708912    21.648837    8893.0326 
  698500    268.39046   -3875.5412   -3415.5292   -3875.5412    705.72507    33043.508            0            0   -37624.774   -27.080798   -1012.6817    17.315912    23.694812    21.635962    8877.1765 
  699000    246.42348   -3867.6237   -3445.2623   -3867.6237    754.69292    33004.403            0            0   -37626.719   -27.748624    764.77957    17.175868    23.503179     21.46098    8663.5295 
  699500    268.17333   -3814.1459    -3354.506   -3814.1459    711.72235    33095.591            0            0   -37621.459   -26.844422   -452.56215    17.366588    23.764157    21.699281    8955.3435 
  700000    267.53227   -3892.0877   -3433.5466   -3892.0877    730.65676    33002.569            0            0   -37625.314   -26.955614   -608.33997    17.342676    23.731436    21.669404    8918.4027 
  700500      276.006     -3885.03   -3411.9651     -3885.03    735.51105     33005.95            0            0   -37626.491   -27.232739   -368.03716    17.283648    23.650663    21.595649    8827.6475 
  701000    269.21833   -3887.0748   -3425.6438   -3887.0748    750.30836    32988.835            0            0   -37626.219    -27.65464    358.80098    17.195303    23.529774    21.485264    8692.9724 
  701500    274.81895    -3873.986   -3402.9558    -3873.986    643.38683    33107.842            0            0   -37625.215   -27.879141   -1800.6796    17.149023    23.466445    21.427438     8622.971 
  702000    272.74153   -3841.5529   -3374.0832   -3841.5529    679.14413    33101.029            0            0   -37621.726   -28.106167   -271.03033    17.102725    23.403091    21.369589    8553.3193 
  702500    285.55511   -3850.2983   -3360.8666   -3850.2983    705.73291     33070.08            0            0   -37626.111   -27.678818   -42.706631    17.190295    23.522921    21.479007     8685.379 
  703000    274.85984   -3789.5925   -3318.4921   -3789.5925    674.23053     33160.39            0            0   -37624.213   -27.663795   -403.36663    17.193406    23.527178    21.482894    8690.0955 
  703500    273.76876   -3812.1737   -3342.9434   -3812.1737    659.61674    33150.205            0            0   -37621.996   -27.926319   -572.47272     17.13936    23.453223    21.415365    8608.4034 
  704000    274.60726   -3847.9832   -3377.3157   -3847.9832    708.74477     33068.98            0            0   -37625.708   -27.942628    -3.727955    17.136025    23.448659    21.411197    8603.3791 
  704500    249.25165   -3857.6341   -3430.4253   -3857.6341    755.75121    33008.296            0            0   -37621.682   -27.970426    1291.9577    17.130347    23.440888    21.404102    8594.8289 
  705000    263.13118   -3856.5792   -3405.5814   -3856.5792    711.98172    33055.497            0            0   -37624.058   -27.694013   -26.210949    17.187151    23.518618    21.475078    8680.6135 
  705500    266.55103    -3811.631   -3354.7717    -3811.631    662.05554    33148.053            0            0   -37621.739   -27.359087   -950.39955    17.257001    23.614199    21.562354    8786.8804 
  706000    268.49649   -3863.2058    -3403.012   -3863.2058    709.69723    33049.413            0            0   -37622.316   -27.956351     23.32252    17.133221    23.444822    21.407693     8599.156 
  706500    275.57758    -3826.462   -3354.1315    -3826.462    653.65448    33143.699            0            0   -37623.816   -27.618749   -1119.3392    17.202749    23.539962    21.494567     8704.269 
  707000    280.74582   -3794.2664   -3313.0777   -3794.2664    696.12308    33134.626            0            0   -37625.016   -27.995428    730.80965    17.125246    23.433908    21.397728     8587.153 
  707500    275.11989   -3846.2796   -3374.7336   -3846.2796    687.21677    33090.727            0            0   -37624.224   -28.193591   -169.65723    17.085029    23.378876    21.347478    8526.7968 
  708000    273.85014   -3829.1613   -3359.7916   -3829.1613    695.08033    33099.252            0            0   -37623.494   -27.710267    -181.8213    17.183789    23.514019    21.470878    8675.5217 
  708500    276.97484   -3845.7186   -3370.9932   -3845.7186    720.86238    33056.068            0            0   -37622.649   -27.703278    106.88416    17.185234    23.515996    21.472683    8677.7102 
  709000    275.91934    -3843.255   -3370.3387    -3843.255      686.596    33095.942            0            0   -37625.793   -28.040204   -437.49203    17.116125    23.421428    21.386332    8573.4405 
  709500    284.76173   -3863.4952   -3375.4233   -3863.4952    759.30572    33002.001            0            0   -37624.802   -28.478871    1491.4458    17.027789     23.30055    21.275958    8441.3818 
  710000    274.72395    -3816.767   -3345.8995    -3816.767    762.65904    33047.373            0            0   -37626.799   -27.792428    1810.3372     17.16684    23.490825    21.449699    8649.8749 
  710500    273.39718   -3795.1456   -3326.5522   -3795.1456    748.19915    33080.757            0            0   -37624.102   -27.146414    1096.3721    17.301949    23.675706    21.618516    8855.7193 
  711000    258.30231   -3826.2309   -3383.5096   -3826.2309    725.83953    33069.847            0            0   -37621.917    -27.74013    387.70517    17.177621    23.505578     21.46317    8666.1821 
  711500    268.00288   -3858.9938    -3399.646   -3858.9938    710.31816    33053.816            0            0   -37623.128   -27.571964   -89.835669    17.212473    23.553269    21.506718    8719.0387 
  712000    266.46097   -3839.5741   -3382.8691   -3839.5741    735.79821     33046.36            0            0   -37621.732   -27.807413     638.7735    17.163756    23.486604    21.445846    8645.2136 
  712500    249.35657   -3807.1694   -3379.7808   -3807.1694    665.61564    33148.981            0            0   -37621.766   -27.683687   -739.14697    17.189287    23.521542    21.477747    8683.8514 
  713000    287.13132   -3801.1595   -3309.0263   -3801.1595     692.6692    33129.596            0            0   -37623.425      -27.804    80.092008    17.164458    23.487565    21.446723    8646.2748 
  713500    261.82136   -3827.2873   -3378.5345   -3827.2873    702.15707    33095.977            0            0   -37625.421   -28.042633    426.73908    17.115631    23.420752    21.385715    8572.6979 
  714000    272.75754   -3844.6496   -3377.1525   -3844.6496    736.97773    33044.099            0            0   -37625.726   -28.190276    1144.1585    17.085699    23.379792    21.348315    8527.7996 
  714500    263.23687   -3834.2825   -3383.1035   -3834.2825    676.17186    33114.638            0            0   -37625.092   -27.488126    -905.5075    17.229955     23.57719    21.528561    8745.6317 
  715000     254.8708   -3800.3325   -3363.4927   -3800.3325    719.14984    33102.656            0            0   -37622.138   -27.510159    536.35026    17.225354    23.570894    21.522812    8738.6272 
  715500    261.56678   -3852.7458   -3404.4293   -3852.7458     669.5133     33102.26            0            0   -37624.519   -27.332084   -1369.2711    17.262682    23.621973    21.569452    8795.5612 
  716000    269.87631   -3849.5753   -3387.0165   -3849.5753    760.39089    33011.671            0            0   -37621.637   -27.490688    984.03844     17.22942    23.576458    21.527892    8744.8167 
  716500    281.57941   -3879.4615    -3396.844   -3879.4615    734.12211    33013.381            0            0   -37626.964   -27.522435    255.86744    17.222792    23.567389    21.519611    8734.7295 
  717000    264.90768   -3874.7194   -3420.6767   -3874.7194    730.13352    33017.918            0            0   -37622.771   -27.155664   -446.92746    17.299984    23.673017    21.616061    8852.7028 
  717500     274.1824   -3846.8597   -3376.9204   -3846.8597    720.48064    33057.879            0            0    -37625.22   -27.694352    321.28935     17.18708    23.518522     21.47499    8680.5071 
  718000    264.30298   -3863.5136   -3410.5073   -3863.5136    705.57414    33057.052            0            0    -37626.14   -27.068042   -799.71335    17.318631    23.698534     21.63936    8881.3597 
  718500    274.78306   -3839.1635   -3368.1947   -3839.1635    756.72671    33028.457            0            0   -37624.347   -27.470943    1207.6054    17.233546    23.582105    21.533048    8751.1021 
  719000    267.71182   -3877.7562   -3418.9073   -3877.7562    754.28165     32992.04            0            0   -37624.078   -27.279824    236.48688    17.273698    23.637048    21.583217     8812.411 
  719500    264.47167   -3890.5441   -3437.2487   -3890.5441    726.23864    33008.783            0            0   -37625.566   -27.012378   -714.65692    17.330519    23.714801    21.654214    8899.6617 
  720000    285.98362   -3849.3636   -3359.1975   -3849.3636    746.74238    33029.536            0            0   -37625.642   -27.113839    444.50728    17.308875    23.685184     21.62717    8866.3587 
  720500    255.11359   -3880.4127   -3443.1568   -3880.4127    729.75469     33014.86            0            0   -37625.028   -27.527529   -35.276768     17.22173    23.565935    21.518284    8733.1131 
  721000    268.10022   -3852.2727   -3392.7581   -3852.2727    687.10822    33082.163            0            0   -37621.544   -27.160908   -1212.4493    17.298871    23.671494     21.61467    8850.9937 
  721500    259.76359   -3857.0489    -3411.823   -3857.0489    732.91752    33033.926            0            0   -37623.893   -27.438259    94.980728    17.240386    23.591465    21.541595     8761.526 
  722000    266.92421   -3915.9035   -3458.4045   -3915.9035    794.57443    32917.002            0            0    -37627.48   -27.666816    1086.1862    17.192781    23.526322    21.482112    8689.1468 
  722500    262.93067   -3905.8456   -3455.1914   -3905.8456    809.92804    32910.205            0            0   -37625.979   -27.493059    1604.1823    17.228924     23.57578    21.527273    8744.0624 
  723000    274.16536    -3914.078    -3444.168    -3914.078    757.20042    32952.926            0            0   -37624.204   -27.761984    480.58783    17.173113    23.499408    21.457537    8659.3604 
  723500    261.97311   -3928.4409    -3479.428   -3928.4409    769.84896     32927.32            0            0    -37625.61   -28.117632    576.43098      17.1004     23.39991    21.366684    8549.8319 
  724000    262.98312   -3909.8364   -3459.0923   -3909.8364    697.26767    33018.535            0            0   -37625.639    -27.76248      -1200.1     17.17301    23.499268    21.457409    8659.2057 
  724500    261.82934   -3873.0656   -3424.2991   -3873.0656    738.08202    33011.029            0            0   -37622.177   -27.962181    476.67117     17.13203    23.443192    21.406206    8597.3632 
  725000    283.58277   -3903.9398   -3417.8886   -3903.9398    712.48759    33009.066            0            0   -37625.493   -27.799852    -766.5221    17.165311    23.488733     21.44779    8647.5648 
  725500    262.45516   -3862.5898   -3412.7507   -3862.5898     728.5412    33032.388            0            0   -37623.519    -27.60194   -135.77452     17.20624     23.54474     21.49893    8709.5699 
  726000    281.72038    -3883.879     -3401.02    -3883.879    726.66105    33011.831            0            0   -37622.372   -27.678072   -271.43339     17.19045    23.523132      21.4792    8685.6131 
  726500    256.86692    -3886.965   -3446.7039    -3886.965    770.81698    32963.084            0            0   -37620.866   -27.329588    264.35452    17.263207    23.622693    21.570109    8796.3647 
  727000    263.03468   -3870.7865   -3419.9541   -3870.7865    663.47915    33090.356            0            0   -37624.622   -26.901588    -2049.512    17.354278    23.747312      21.6839    8936.3133 
  727500    272.12193   -3866.9125   -3400.5048   -3866.9125    718.84482     33037.55            0            0   -37623.308   -27.667876   -312.40322    17.192561    23.526021    21.481838    8688.8138 
  728000    282.80459    -3862.968   -3378.2506    -3862.968    703.73348     33058.88            0            0   -37625.582   -28.014824   -222.23053    17.121292    23.428499    21.392789    8581.2076 
  728500    265.95446   -3848.9418    -3393.105   -3848.9418    651.90934     33123.31            0            0   -37624.161     -27.9179   -1327.2061    17.141083     23.45558    21.417517    8610.9994 
  729000    274.64522   -3854.5108   -3383.7783   -3854.5108    689.43575    33078.541            0            0   -37622.488   -27.815037   -518.32222    17.162187    23.484458    21.443886    8642.8439 
  729500    269.97321   -3842.2176   -3379.4927   -3842.2176    684.02347    33099.281            0            0   -37625.522   -27.739805   -812.26414    17.177688    23.505669    21.463254    8666.2837 
  730000    256.43098   -3819.5242   -3380.0102   -3819.5242    748.18028    33057.537            0            0   -37625.241    -27.56883    914.74969    17.213126    23.554162    21.507533      8720.03 
  730500    269.42894   -3881.9438   -3420.1518   -3881.9438    745.11936    32996.949            0            0   -37624.012   -28.006734    552.77048    17.122941    23.430754    21.394849    8583.6864 
  731000    280.67804   -3878.3253   -3397.2528   -3878.3253     708.2005    33038.766            0            0   -37625.292   -27.765262   -366.26553    17.172437    23.498483    21.456693    8658.3379 
  731500    253.66943   -3865.5693   -3430.7886   -3865.5693    728.18385    33029.107            0            0    -37622.86   -28.202498    503.50572     17.08323    23.376414     21.34523    8524.1038 
  732000     261.7629   -3877.9554   -3429.3027   -3877.9554    719.46029    33023.353            0            0   -37620.769   -27.879005   -41.290817    17.149051    23.466483    21.427473    8623.0131 
  732500     287.1601   -3909.5408   -3417.3583   -3909.5408    700.11684    33014.794            0            0   -37624.451   -27.491761   -1171.1679    17.229195    23.576151    21.527612    8744.4752 
  733000    294.37028   -3902.5884   -3398.0478   -3902.5884    697.87902     33024.37            0            0   -37624.838   -27.886468   -931.57351    17.147521    23.464389    21.425561    8620.7053 
  733500    282.16904   -3825.5749   -3341.9468   -3825.5749    728.07954    33071.219            0            0   -37624.873   -28.211958    1232.1019     17.08132    23.373801    21.342844    8521.2456 
  734000    262.11686   -3852.4617   -3403.2024   -3852.4617    690.58834    33081.675            0            0   -37624.725   -27.994503    -485.6122    17.125434    23.434166    21.397964    8587.4367 
  734500    250.77764   -3819.0179   -3389.1936   -3819.0179    667.51093    33138.118            0            0   -37624.647    -28.15678   -639.75093    17.092471     23.38906    21.356777    8537.9445 
  735000    261.69145   -3811.2238   -3362.6936   -3811.2238    698.69116    33115.205            0            0    -37625.12   -27.984615    194.21378    17.127451    23.436926    21.400484    8590.4709 
  735500    273.45958   -3874.9383   -3406.2379   -3874.9383    741.61751    33009.439            0            0   -37625.995   -28.181876    613.98388    17.087396    23.382115    21.350436    8530.3415 
  736000    279.58018   -3844.6419    -3365.451   -3844.6419    706.74752    33073.564            0            0   -37624.954   -28.466742    477.69644    17.030207    23.303859    21.278979    8444.9785 
  736500    262.74281   -3863.2282    -3412.896   -3863.2282    711.29931    33050.491            0            0   -37625.019   -28.129136    119.34696    17.098068    23.396719    21.363771     8546.335 
  737000    281.90349   -3862.2071   -3379.0342   -3862.2071    686.61953    33073.574            0            0   -37622.401   -27.853976   -783.56897    17.154186     23.47351    21.433889    8630.7615 
  737500    259.74529   -3828.0987   -3382.9041   -3828.0987    675.81367    33116.943            0            0   -37620.856   -28.377222   -20.636295    17.048096    23.328338    21.301331    8471.6194 
  738000    255.23607   -3870.1745   -3432.7087   -3870.1745    691.24414    33065.647            0            0   -37627.066   -27.997407    -849.7895    17.124842    23.433356    21.397224     8586.546 
  738500    270.70312   -3866.9291   -3402.9532   -3866.9291    687.04976    33071.001            0            0    -37624.98   -27.774978   -800.96784    17.170434    23.495743     21.45419    8655.3093 
  739000    276.88751   -3862.9732   -3388.3974   -3862.9732    738.09994    33023.152            0            0   -37624.225   -28.159275     600.0335    17.091966    23.388369    21.356146    8537.1878 
  739500    272.19441   -3855.8422   -3389.3103   -3855.8422    692.65389    33076.661            0            0   -37625.157   -27.953759     -294.446    17.133751    23.445546    21.408355    8599.9534 
  740000    266.66647    -3825.156   -3368.0988    -3825.156    684.25679    33117.878            0            0   -37627.291   -27.684876    -729.3039    17.189041    23.521205     21.47744    8683.4784 
  740500    283.79913   -3861.7964   -3375.3744   -3861.7964     682.2205    33081.823            0            0    -37625.84   -27.710843   -903.71665     17.18367    23.513856    21.470729    8675.3415 
  741000    279.70073   -3837.1869   -3357.7895   -3837.1869    698.02111    33090.443            0            0   -37625.651    -27.49452   -599.05396    17.228619    23.575363    21.526892    8743.5978 
  741500    271.08053   -3858.4319   -3393.8092   -3858.4319    721.82038    33041.507            0            0   -37621.759   -27.747564    51.021365    17.176087    23.503478    21.461253    8663.8605 
  742000    285.42142   -3822.2606   -3333.0581   -3822.2606    688.29043    33114.259            0            0    -37624.81   -27.554322   -698.89916    17.216146    23.558295    21.511307    8724.6212 
  742500    273.41421   -3862.6585   -3394.0359   -3862.6585    702.10794    33057.997            0            0   -37622.763   -27.716727   -678.09246    17.182454    23.512191     21.46921    8673.4996 
  743000    269.97763   -3845.0192   -3382.2868   -3845.0192      714.006    33065.442            0            0   -37624.467   -27.815021   -160.42013     17.16219    23.484463     21.44389    8642.8488 
  743500    278.41858   -3855.4147   -3378.2148   -3855.4147    686.67499    33081.237            0            0   -37623.327    -27.67492   -738.36906    17.191102    23.524025    21.480015    8686.6023 
  744000    261.26352   -3856.5157   -3408.7189   -3856.5157    712.55521    33054.118            0            0   -37623.189   -27.318071   -458.58896    17.265633    23.626012     21.57314    8800.0731 
  744500    254.26162   -3857.9703   -3422.1746   -3857.9703    717.45841    33048.154            0            0   -37623.583   -26.998534   -879.54119    17.333481    23.718854    21.657915    8904.2252 
  745000    254.30964   -3876.9364   -3441.0584   -3876.9364    719.23423    33029.657            0            0   -37625.827   -27.040444   -922.69826    17.324521    23.706594     21.64672    8890.4244 
  745500    264.49395   -3861.4019   -3408.0683   -3861.4019    712.77332    33051.054            0            0   -37625.229   -27.241103   -607.39611    17.281879    23.648242    21.593439    8824.9372 
  746000    274.17528   -3834.9289   -3365.0018   -3834.9289    735.68749    33051.549            0            0   -37622.166   -27.462403    514.63709    17.235333    23.584549     21.53528    8753.8232 
  746500    272.80824    -3838.963    -3371.379    -3838.963    692.96628    33088.255            0            0   -37620.184   -27.249124   -822.55672    17.280183    23.645922     21.59132    8822.3395 
  747000    271.46049    -3879.002    -3413.728    -3879.002     676.9566    33068.429            0            0   -37624.388   -26.818434   -2022.2535    17.372195     23.77183    21.706288    8964.0215 
  747500    259.74852   -3888.5658   -3443.3658   -3888.5658    751.36176    32985.749            0            0   -37625.677   -27.099079   -23.234832    17.312017    23.689483    21.631096    8871.1878 
  748000    275.73314   -3863.7558   -3391.1587   -3863.7558    712.44955    33047.774            0            0    -37623.98   -27.339288   -423.37776    17.261165    23.619899    21.567558    8793.2439 
  748500    257.03987   -3846.3255    -3405.768   -3846.3255    721.98393    33056.189            0            0   -37624.499   -27.309711   -6.4159855    17.267395    23.628422    21.575341     8802.767 
  749000    270.56852   -3866.6616   -3402.9165   -3866.6616    785.54064    32968.211            0            0   -37620.414   -27.282336    1001.7663    17.273168    23.636322    21.582555    8811.5995 
  749500    275.01292   -3823.6455   -3352.2828   -3823.6455    741.58023    33060.555            0            0    -37625.78   -27.255723    258.40611    17.278788    23.644013    21.589577    8820.2036 
  750000     273.5354   -3877.7259   -3408.8956   -3877.7259     772.9241    32972.955            0            0   -37623.605   -27.499507    906.39988    17.227577    23.573937     21.52559    8742.0122 
  750500    249.21455   -3873.5766   -3446.4314   -3873.5766     747.4966    33004.354            0            0   -37625.427   -27.431727    153.54094    17.241755    23.593337    21.543305    8763.6125 
  751000    277.57656   -3856.4424   -3380.6857   -3856.4424    762.08194    33004.251            0            0   -37622.776   -27.110541    539.98731    17.309577    23.686144    21.628047    8867.4373 
  751500    280.87577   -3844.4142   -3363.0027   -3844.4142    739.34724    33041.091            0            0   -37624.853   -27.432276    710.12206     17.24164     23.59318    21.543161    8763.4371 
  752000    267.91728   -3868.0123   -3408.8112   -3868.0123    699.10976    33056.559            0            0   -37623.681   -26.706465   -1386.2029     17.39644    23.805006    21.736581     9001.604 
  752500    261.66262   -3882.8305   -3434.3498   -3882.8305    746.16526    32995.636            0            0   -37624.632   -26.983767   -113.18762    17.336642     23.72318    21.661865     8909.098 
  753000    276.69721   -3847.1387   -3372.8891   -3847.1387    696.24385    33081.117            0            0     -37624.5   -26.797442   -1017.2747    17.376731    23.778036    21.711955    8971.0438 
  753500    265.32216   -3868.2996   -3413.5465   -3868.2996    774.92008    32979.585            0            0   -37622.805   -27.128439     622.5234    17.305769    23.680934     21.62329     8861.587 
  754000    282.86396    -3887.177   -3402.3578    -3887.177     703.2842    33034.614            0            0   -37625.075   -27.407605   -915.63675    17.246812    23.600257    21.549623    8771.3255 
  754500    268.31182   -3869.4288   -3409.5515   -3869.4288    697.68555    33056.229            0            0   -37623.343   -27.433355   -814.29754    17.241414     23.59287    21.542878    8763.0922 
  755000    256.98104   -3808.0131   -3367.5564   -3808.0131    674.25767     33141.43            0            0   -37623.701    -27.64088   -550.61138    17.198156    23.533678    21.488829    8697.2999 
  755500    266.07473   -3844.2166   -3388.1737   -3844.2166    685.56936    33093.704            0            0    -37623.49   -27.349933    -742.8783    17.258926    23.616834    21.564759    8789.8211 
  756000    276.25078   -3867.1318   -3393.6474   -3867.1318    788.17699    32968.478            0            0   -37623.786   -27.411019     1255.415    17.246096    23.599277    21.548728     8770.233 
  756500    267.50574   -3841.9608   -3383.4652   -3841.9608    720.10449     33064.79            0            0   -37626.856   -27.167391   -461.31498    17.297495    23.669611    21.612951    8848.8816 
  757000      243.157   -3923.1351   -3506.3723   -3923.1351    759.45281    32942.895            0            0   -37625.483   -27.206117    -155.3715    17.289283    23.658375    21.602691    8836.2856 
  757500    283.83318   -3849.8809   -3363.4005   -3849.8809    718.46612    33056.842            0            0   -37625.189   -27.216623    -382.6172    17.287058     23.65533    21.599911    8832.8748 
  758000    265.86012    -3831.908   -3376.2328    -3831.908    761.00499    33030.363            0            0   -37623.276   -27.338824    1057.0302    17.261263    23.620032     21.56768    8793.3929 
  758500    269.47065    -3842.308   -3380.4445    -3842.308    728.60635    33053.169            0            0   -37624.084    -27.31333   -37.337529    17.266632    23.627379    21.574388    8801.6008 
  759000    283.84397    -3838.006   -3351.5072    -3838.006    744.15307    33039.403            0            0   -37621.562   -27.115035    350.40281     17.30862    23.684835    21.626852    8865.9675 
  759500    258.61491   -3861.7762   -3418.5191   -3861.7762    742.11482     33017.67            0            0   -37621.561   -27.387427    213.68005    17.251046    23.606051    21.554914    8777.7877 
  760000    264.36927   -3846.0296   -3392.9097   -3846.0296    689.97326    33088.757            0            0    -37624.76   -27.120177   -1053.8342    17.307526    23.683338    21.625485    8864.2865 
  760500    269.20584   -3828.2009   -3366.7913   -3828.2009    733.90911    33063.784            0            0   -37625.894   -27.480247    370.21897    17.231601    23.579443    21.530618    8748.1392 
  761000    261.49424   -3851.7306   -3403.5384   -3851.7306    730.74478    33042.083            0            0   -37624.558   -27.524168    170.99836    17.222431    23.566895     21.51916    8734.1795 
  761500    263.44853   -3859.5349   -3407.9932   -3859.5349    757.73957    33008.407            0            0   -37625.682   -27.416892    530.91214    17.244864    23.597592     21.54719    8768.3544 
  762000    268.02663    -3790.342   -3330.9536    -3790.342    694.65702    33137.828            0            0   -37622.827   -27.326001   -49.480707    17.263963    23.623726    21.571053    8797.5192 
  762500    269.22895   -3841.5243   -3380.0751   -3841.5243    661.22276    33122.098            0            0   -37624.846   -27.903869   -1087.2615    17.143956    23.459511    21.421106    8615.3295 
  763000    274.30068   -3826.8748   -3356.7328   -3826.8748    660.37237    33132.896            0            0   -37620.144   -27.244869   -1490.3417    17.281082    23.647153    21.592444    8823.7175 
  763500    264.17185   -3839.8727   -3387.0912   -3839.8727    686.49038    33096.222            0            0   -37622.585    -27.96587   -460.21848    17.131277    23.442161    21.405264     8596.229 
  764000    266.56336   -3863.6979   -3406.8174   -3863.6979    738.23054     33023.16            0            0   -37625.088   -28.102655    570.61666    17.103437    23.404066    21.370479    8554.3884 
  764500    268.62335   -3863.1665   -3402.7553   -3863.1665    719.21218    33043.044            0            0   -37625.423   -28.636493    497.65339     16.99649    23.257721     21.23685    8394.9184 
  765000    281.96584   -3870.1161   -3386.8363   -3870.1161    711.62408    33039.698            0            0   -37621.439   -28.323647    177.79622    17.058839    23.343038    21.314754    8487.6438 
  765500    281.38437   -3798.3172    -3316.034   -3798.3172    710.16835    33115.329            0            0   -37623.815   -27.971585    678.44789     17.13011    23.440564    21.403806    8594.4725 
  766000    279.15564   -3834.3193   -3355.8561   -3834.3193    715.92738    33074.752            0            0   -37624.999   -27.736186    237.99648    17.178435    23.506692    21.464188    8667.4146 
  766500    257.21866     -3817.72    -3376.856     -3817.72    703.72011     33100.73            0            0    -37622.17   -28.020021    168.16139    17.120234     23.42705    21.391466    8579.6162 
  767000    258.59243    -3855.525   -3412.3064    -3855.525    697.27143    33072.508            0            0   -37625.304   -27.987706   -542.20928     17.12682    23.436063    21.399696    8589.5221 
  767500    280.10669   -3858.0491   -3377.9559   -3858.0491    677.26752    33094.643            0            0    -37629.96   -27.968308   -911.21326    17.130779     23.44148    21.404642    8595.4796 
  768000    276.52872   -3906.3527   -3432.3919   -3906.3527     727.3061    32990.346            0            0   -37624.005   -28.262474    97.600128    17.071137    23.359867    21.330121    8506.0148 
  768500    287.35066   -3869.1312    -3376.622   -3869.1312    700.96157    33053.547            0            0   -37623.639   -28.175378   -69.366404    17.088709    23.383912    21.352077    8532.3086 
  769000    250.68978   -3862.8725   -3433.1988   -3862.8725    743.24859    33016.837            0            0   -37622.958   -27.799398    697.45525    17.165405    23.488861    21.447907    8647.7062 
  769500    281.56956   -3873.5736    -3390.973   -3873.5736    738.79572    33014.418            0            0   -37626.787   -27.327832   -43.190778    17.263577    23.623199    21.570571      8796.93 
  770000    272.11209   -3854.5162   -3388.1254   -3854.5162    734.70883    33033.574            0            0   -37622.799    -27.57387     57.19346    17.212077    23.552726    21.506222    8718.4359 
  770500    290.92379   -3854.0156   -3355.3822   -3854.0156    729.43936    33038.365            0            0    -37621.82   -27.322856   -121.28568    17.264625    23.624632     21.57188    8798.5319 
  771000    270.85106     -3886.49   -3422.2606     -3886.49    760.02098    32978.091            0            0   -37624.602   -27.728043    620.14313    17.180117    23.508993    21.466289      8669.96 
  771500    268.78982   -3896.0059   -3435.3094   -3896.0059    753.75455    32975.102            0            0   -37624.863   -27.367681    26.496673    17.255194    23.611727    21.560097    8784.1211 
  772000    257.78854   -3852.1008   -3410.2601   -3852.1008    712.55799    33060.167            0            0   -37624.826    -27.43137   -470.07118     17.24183     23.59344    21.543398    8763.7264 
  772500    260.07612   -3854.1812   -3408.4196   -3854.1812     746.7507    33023.324            0            0   -37624.256   -27.334955    359.82728    17.262077    23.621146    21.568697    8794.6375 
  773000    278.49372   -3820.1905   -3342.8618   -3820.1905    685.12271    33118.838            0            0   -37624.151   -27.991417   -291.64489    17.126064    23.435027     21.39875    8588.3834 
  773500    277.25042   -3923.2991   -3448.1014   -3923.2991    748.41666    32955.079            0            0   -37626.795   -27.899653    141.93276    17.144819    23.460692    21.422185    8616.6312 
  774000    266.09995   -3839.6608   -3383.5746   -3839.6608    696.44235    33090.129            0            0   -37626.232   -27.523625   -588.39101    17.222544     23.56705    21.519301    8734.3517 
  774500    270.26299   -3871.2269   -3408.0054   -3871.2269    739.82702    33015.251            0            0   -37626.305   -27.691255     433.7682    17.187721    23.519399    21.475791    8681.4781 
  775000    279.72919   -3842.2147   -3362.7685   -3842.2147    716.92474    33067.304            0            0   -37626.444   -27.900965    507.92331     17.14455    23.460325    21.421849     8616.226 
  775500    258.30983   -3878.0908   -3435.3565   -3878.0908    737.63004    33008.629            0            0    -37624.35   -28.046696    415.72786    17.114805    23.419621    21.384682     8571.456 
  776000    275.72786   -3867.4669   -3394.8788   -3867.4669    776.49311    32979.854            0            0   -37623.814   -27.767993    1394.2216    17.171874    23.497713    21.455989    8657.4864 
  776500    256.31524   -3890.7563   -3451.4408   -3890.7563    714.63393    33020.901            0            0   -37626.291   -27.253075   -778.65469    17.279348    23.644779    21.590276    8821.0604 
  777000    260.76156    -3840.627   -3393.6906    -3840.627    710.55102    33071.331            0            0   -37622.509   -27.009242   -569.38065     17.33119    23.715719    21.655052    8900.6948 
  777500    239.50742   -3818.7601   -3408.2526   -3818.7601    659.53236    33147.118            0            0    -37625.41   -27.461168    -1328.749    17.235591    23.584903    21.535603     8754.217 
  778000    278.51124    -3844.296   -3366.9373    -3844.296    743.43761    33038.561            0            0   -37626.295   -27.463574    765.70704    17.235088    23.584214    21.534974    8753.4499 
  778500    263.72864    -3869.961   -3417.9392    -3869.961    761.81908    32990.454            0            0   -37622.234   -27.441725    790.89661     17.23966    23.590472    21.540688    8760.4194 
  779000    258.72285   -3860.5836   -3417.1415   -3860.5836    745.26769    33017.447            0            0   -37623.299   -27.837641    616.53793    17.157541      23.4781     21.43808    8635.8259 
  779500    256.49753   -3904.7257   -3465.0977   -3904.7257    763.13226    32957.635            0            0   -37625.493   -27.513047    275.56884    17.224751     23.57007    21.522059      8737.71 
  780000    270.22046   -3860.2509   -3397.1023   -3860.2509    673.19532    33089.176            0            0   -37622.622   -27.788304   -1225.3773    17.167689    23.491987     21.45076    8651.1584 
  780500    283.39141   -3839.9343   -3354.2111   -3839.9343    680.67973     33105.58            0            0   -37626.194   -26.760406   -1238.6465    17.384743       23.789    21.721966    8983.4595 
  781000     265.5169   -3850.4707   -3395.3838   -3850.4707    783.31708     32989.91            0            0   -37623.698   -27.806292    2057.8226    17.163986     23.48692    21.446134    8645.5621 
  781500    272.52764   -3902.1409   -3435.0379   -3902.1409    759.12408    32965.885            0            0    -37627.15   -27.381785    417.92456    17.252231    23.607673    21.556394    8779.5966 
  782000    257.03245   -3842.8642   -3402.3194   -3842.8642    723.43602    33057.628            0            0   -37623.929   -26.841694   -439.15368    17.367176    23.764962    21.700017    8956.2538 
  782500    276.09824   -3861.6985   -3388.4756   -3861.6985    752.69121     33010.28            0            0    -37624.67   -26.713082     314.4598    17.395003     23.80304    21.734786    8999.3743 
  783000    271.92966   -3888.4042   -3422.3261   -3888.4042    776.64581    32955.969            0            0   -37621.019    -27.73317    1279.5139    17.179058    23.507544    21.464966    8668.3571 
  783500    269.42401    -3858.268   -3396.4845    -3858.268    719.60963    33047.733            0            0   -37625.611   -27.469004   -138.97408    17.233952     23.58266    21.533555    8751.7197 
  784000    275.09883   -3839.2105   -3367.7005   -3839.2105    715.05627    33070.376            0            0   -37624.642   -27.457579    76.986533    17.236342     23.58593    21.536541    8755.3613 
  784500    255.90962   -3818.2484   -3379.6281   -3818.2484    673.16851    33133.606            0            0   -37625.023    -27.09885    -1246.566    17.312066     23.68955    21.631157    8871.2628 
  785000    263.31063    -3816.811   -3365.5056    -3816.811    687.14639    33120.484            0            0   -37624.441   -27.576676   -354.58823    17.211493    23.551927    21.505493    8717.5489 
  785500    273.56305   -3836.8462   -3367.9685   -3836.8462    651.79384    33137.455            0            0   -37626.095    -27.80281   -1394.1605    17.164702      23.4879    21.447029    8646.6447 
  786000    281.11127   -3868.1312   -3386.3161   -3868.1312    738.22322    33019.116            0            0   -37625.471   -27.998933    450.67928    17.124531     23.43293    21.396835    8586.0779 
  786500    256.82157   -3885.1796   -3444.9962   -3885.1796     757.7389    32984.002            0            0    -37626.92   -28.166821    1126.4409     17.09044     23.38628    21.354239    8534.9007 
  787000    254.01764   -3844.7281   -3409.3506   -3844.7281    738.66541    33041.537            0            0   -37624.931   -28.209447    957.50373    17.081827    23.374495    21.343477     8522.004 
  787500    263.48712   -3826.7385   -3375.1306   -3826.7385    731.62267    33067.587            0            0   -37625.949   -28.209346    942.82118    17.081847    23.374523    21.343503    8522.0345 
  788000    275.68307   -3851.5736   -3379.0623   -3851.5736    739.39938    33033.398            0            0   -37624.371   -27.965838    826.87862    17.131284     23.44217    21.405273     8596.239 
  788500    266.89193   -3855.1759   -3397.7323   -3855.1759    675.87643    33093.688            0            0    -37624.74   -27.561273   -1087.3931    17.214698    23.556314    21.509498    8722.4208 
  789000    253.17494   -3835.4993   -3401.5662   -3835.4993    709.36899    33080.023            0            0   -37624.892   -27.764419   -26.262958     17.17261    23.498721     21.45691     8658.601 
  789500    270.43204   -3822.2052    -3358.694   -3822.2052    718.04181    33082.372            0            0   -37622.619   -27.675069    292.09603    17.191071    23.523983    21.479976    8686.5555 
  790000     262.5918   -3842.2038   -3392.1304   -3842.2038    757.80335    33026.352            0            0   -37626.359   -28.133132    1626.9604    17.097259    23.395611    21.362759    8545.1211 
  790500    289.04893   -3824.4767   -3329.0567   -3824.4767    685.73777    33114.522            0            0   -37624.736   -27.293252   -711.27167    17.270865    23.633171    21.579677    8808.0756 
  791000    269.89576   -3816.3874   -3353.7953   -3816.3874    658.95166    33145.723            0            0   -37621.062    -27.20345   -1543.7003    17.289848    23.659148    21.603397    8837.1522 
  791500    265.81713   -3835.8614   -3380.2599   -3835.8614     733.4015    33053.869            0            0   -37623.132   -27.770781    739.60891    17.171299    23.496927    21.455271    8656.6171 
  792000    261.29254   -3833.2517   -3385.4052   -3833.2517    730.41702    33061.975            0            0   -37625.644   -27.426553     236.2362    17.242839    23.594821    21.544659    8765.2656 
  792500    261.07949   -3843.8339   -3396.3526   -3843.8339    730.38702    33051.571            0            0   -37625.792   -27.173615    -206.6851    17.296174    23.667804      21.6113    8846.8548 
  793000    275.33612   -3865.9046    -3393.988   -3865.9046    769.71719     32988.35            0            0   -37623.972   -27.766669    1427.1039    17.172147    23.498087     21.45633    8657.8994 
  793500     283.7041   -3813.8659   -3327.6068   -3813.8659    685.26228    33125.367            0            0   -37624.495   -27.775045    27.482151     17.17042    23.495724    21.454173    8655.2884 
  794000    251.65495   -3838.9091   -3407.5811   -3838.9091    832.75308    32950.051            0            0   -37621.713   -27.633888    2815.8391    17.199607    23.535663    21.490641    8699.5005 
  794500    259.47227   -3837.6263   -3392.8997   -3837.6263     727.1641    33058.919            0            0   -37623.709   -27.609116    400.92908    17.204749    23.542699    21.497067    8707.3059 
  795000    267.94811   -3846.6883   -3387.4344   -3846.6883    731.69085    33044.595            0            0   -37622.974   -27.790667     290.3601    17.167202    23.491321    21.450152    8650.4228 
  795500     282.4189    -3836.113   -3352.0566    -3836.113    715.19411     33071.94            0            0   -37623.247   -27.841887    134.80466    17.156669    23.476907    21.436991    8634.5091 
  796000    270.27836   -3852.8758   -3389.6279   -3852.8758    708.23998    33063.967            0            0   -37625.083   -28.122445    130.17704    17.099424    23.398575    21.365465    8548.3685 
  796500    269.78815   -3825.0861   -3362.6784   -3825.0861    684.96691    33112.056            0            0   -37622.109   -27.477173   -564.94832    17.232244    23.580323    21.531421    8749.1176 
  797000    257.88616   -3860.3417   -3418.3336   -3860.3417    670.02943    33090.226            0            0   -37620.598   -27.345721   -1638.9146    17.259812    23.618046    21.565866    8791.1752 
  797500    272.53764   -3806.1239   -3339.0038   -3806.1239    709.07523    33111.243            0            0   -37626.442   -27.669018    247.75667    17.192324    23.525698    21.481542    8688.4552 
  798000    255.71786   -3839.3244   -3401.0327   -3839.3244    695.27181        33091            0            0   -37625.596   -28.196241   -92.798349    17.084494    23.378144    21.346809    8525.9955 
  798500    284.62694   -3816.1006   -3328.2598   -3816.1006    674.85209    33133.666            0            0   -37624.619   -27.280229     -603.923    17.273613    23.636931    21.583111    8812.2802 
  799000    253.41267   -3819.8718   -3385.5311   -3819.8718    715.52535    33089.886            0            0   -37625.283   -27.410542    23.388626    17.246195    23.599414    21.548853    8770.3855 
  799500     268.2904   -3828.8136    -3368.973   -3828.8136    730.01888    33063.657            0            0    -37622.49    -28.04639    835.85209    17.114867    23.419706     21.38476    8571.5496 
  800000    278.29158   -3878.6406   -3401.6583   -3878.6406    746.32659    32996.138            0            0   -37621.105   -28.114031    796.70817     17.10113    23.400909    21.367596    8550.9268 
Loop time of 855.911 on 8 procs for 500000 steps with 864 atoms

Performance: 100.945 ns/day, 0.238 hours/ns, 584.173 timesteps/s
99.7% CPU use with 8 MPI tasks x 1 OpenMP threads

MPI task timing breakdown:
Section |  min time  |  avg time  |  max time  |%varavg| %total
---------------------------------------------------------------
Pair    | 418.98     | 481.71     | 550.26     | 206.3 | 56.28
Bond    | 0.11352    | 0.12421    | 0.14897    |   3.2 |  0.01
Kspace  | 160.68     | 231.02     | 296.56     | 300.8 | 26.99
Neigh   | 25.698     | 26.045     | 26.527     |   6.0 |  3.04
Comm    | 38.66      | 42.328     | 46.329     |  39.2 |  4.95
Output  | 2.2392     | 2.2429     | 2.2647     |   0.6 |  0.26
Modify  | 62.523     | 68.708     | 73.062     |  49.6 |  8.03
Other   |            | 3.735      |            |       |  0.44

Nlocal:    108 ave 117 max 90 min
Histogram: 1 0 0 0 0 2 0 2 2 1
Nghost:    3154.25 ave 3214 max 3060 min
Histogram: 1 0 0 0 2 0 0 3 1 1
Neighs:    28872.8 ave 31944 max 24601 min
Histogram: 1 0 1 1 0 1 0 1 1 2

Total # of neighbors = 230982
Ave neighs/atom = 267.34
Ave special neighs/atom = 2
Neighbor list builds = 28950
Dangerous builds = 541

unfix		1
unfix		2
unfix		3

write_data	data.final
PPPM initialization ...
  extracting TIP4P info from pair style
  using 12-bit tables for long-range coulomb (src/kspace.cpp:323)
  G vector (1/distance) = 0.327655
  grid = 15 16 15
  stencil order = 5
  estimated absolute RMS force accuracy = 0.0304753
  estimated relative force accuracy = 9.17754e-05
  using double precision FFTW3
  3d grid and FFT values/proc = 3150 512
Total wall time: 0:23:14
