LAMMPS (19 Sep 2019)
echo both

include		in.temp
variable	temperature equal 300.0

variable	tempDamp equal 100.0
include		in.pressure
variable        pressure equal 1.
variable        pressureDamp equal 1000.0 # This is 1 ps
include		in.seed
variable	seed equal 745821
units		real
atom_style	full
include		in.box
read_data       water.data
  orthogonal box = (0.418551 0.418551 0.418551) to (14.5662 14.5662 14.5662)
  2 by 2 by 2 MPI processor grid
  reading atoms ...
  288 atoms
  reading velocities ...
  288 velocities
  scanning bonds ...
  2 = max bonds/atom
  scanning angles ...
  1 = max angles/atom
  reading bonds ...
  192 bonds
  reading angles ...
  96 angles
  2 = max # of 1-2 neighbors
  1 = max # of 1-3 neighbors
  1 = max # of 1-4 neighbors
  2 = max # of special neighbors
  special bonds CPU = 0.000738695 secs
  read_data CPU = 0.00864307 secs
include 	in.setup
variable	out_freq equal 500
variable	out_freq2 equal 500

timestep	2.0

neigh_modify    delay 10 every 1

include		in.tip4p
# This is TIP4P/Ice

# create groups ###
group ox type 2
96 atoms in group ox
group hy type 1
192 atoms in group hy

# set charges - beside manually ###
set group ox charge -1.1794
  96 settings made for charge
set group hy charge 0.5897
  192 settings made for charge

# ### TIP3P Potential Parameters ###
pair_style lj/cut/tip4p/long 2 1 1 1 0.1577 8.5
pair_coeff 1 1*2 0.000 0.000
pair_coeff 2 2 0.21084 3.1668
bond_style  harmonic
bond_coeff  1 450 0.9572
angle_style harmonic
angle_coeff 1 55 104.52
kspace_style pppm/tip4p 1.0e-4 #final npt relaxation
pair_modify tail yes

thermo          ${out_freq}
thermo          500
thermo_style 	custom step temp pe etotal epair evdwl ecoul ebond eangle elong etail press lx ly lz vol

restart 	${out_freq} restart.lmp restart2.lmp
restart 	500 restart.lmp restart2.lmp

include 	in.dump
dump            myDump all atom ${out_freq2} dump.water
dump            myDump all atom 500 dump.water
dump            myDump2 all dcd ${out_freq2} water.dcd
dump            myDump2 all dcd 500 water.dcd
#dump_modify     myDump append yes

fix 		1 all shake 1e-6 200 0 b 1 a 1
  0 = # of size 2 clusters
  0 = # of size 3 clusters
  0 = # of size 4 clusters
  96 = # of frozen angles
  find clusters CPU = 0.000733466 secs
fix             2 all nph iso ${pressure} ${pressure} ${pressureDamp}
fix             2 all nph iso 1 ${pressure} ${pressureDamp}
fix             2 all nph iso 1 1 ${pressureDamp}
fix             2 all nph iso 1 1 1000
fix             3 all temp/csvr ${temperature} ${temperature} ${tempDamp} ${seed}
fix             3 all temp/csvr 300 ${temperature} ${tempDamp} ${seed}
fix             3 all temp/csvr 300 300 ${tempDamp} ${seed}
fix             3 all temp/csvr 300 300 100 ${seed}
fix             3 all temp/csvr 300 300 100 745821

run             200000
PPPM initialization ...
  extracting TIP4P info from pair style
  using 12-bit tables for long-range coulomb (../kspace.cpp:323)
  G vector (1/distance) = 0.342162
  grid = 12 12 12
  stencil order = 5
  estimated absolute RMS force accuracy = 0.0151465
  estimated relative force accuracy = 4.56133e-05
  using double precision KISS FFT
  3d grid and FFT values/proc = 2197 288
Neighbor list info ...
  update every 1 steps, delay 10 steps, check yes
  max neighbors/atom: 2000, page size: 100000
  master list distance cutoff = 10.8154
  ghost atom cutoff = 10.8154
  binsize = 5.4077, bins = 3 3 3
  1 neighbor lists, perpetual/occasional/extra = 1 0 0
  (1) pair lj/cut/tip4p/long, perpetual
      attributes: half, newton on
      pair build: half/bin/newton
      stencil: half/bin/3d/newton
      bin: standard
Per MPI rank memory allocation (min/avg/max) = 8.972 | 8.977 | 8.981 Mbytes
Step Temp PotEng TotEng E_pair E_vdwl E_coul E_bond E_angle E_long E_tail Press Lx Ly Lz Volume 
       0    272.18548   -1229.6882   -1074.7236   -1229.6882    185.54817    11417.631            0            0   -12832.868   -9.4327081     -1917.29    14.147699    14.147699    14.147699    2831.7663 
     500    315.09749   -1245.8704   -1066.4744   -1245.8704    225.18476    11362.227            0            0   -12833.282   -9.3415427    501.45938    14.193573    14.193573    14.193573    2859.4019 
    1000    322.98414   -1227.0722   -1043.1861   -1227.0722    211.85819    11392.557            0            0   -12831.488   -9.1843033   -149.18824    14.274115    14.274115    14.274115    2908.3561 
    1500    299.56411   -1219.3692    -1048.817   -1219.3692    205.80521    11406.216            0            0    -12831.39    -9.317389   -136.58354    14.205827    14.205827    14.205827    2866.8144 
    2000    297.73825   -1239.1828   -1069.6701   -1239.1828    233.96158    11359.899            0            0   -12833.043   -9.4927225    2006.7289    14.117821    14.117821    14.117821    2813.8634 
    2500    318.12654   -1227.7079   -1046.5874   -1227.7079    190.19893    11414.343            0            0    -12832.25   -9.2714892   -1832.7975    14.229231    14.229231    14.229231    2881.0069 
    3000    287.22259   -1219.4122   -1055.8864   -1219.4122    220.95019    11391.967            0            0    -12832.33   -9.5677525    1788.7324     14.08082     14.08082     14.08082    2791.7972 
    3500    297.69408   -1241.3164   -1071.8288   -1241.3164    215.90561    11375.761            0            0   -12832.983   -9.4313011    419.09857    14.148402    14.148402    14.148402    2832.1887 
    4000    320.17139   -1231.4944   -1049.2097   -1231.4944    170.55948    11431.261            0            0   -12833.314   -9.1054408   -3948.7752    14.315206    14.315206    14.315206    2933.5455 
    4500    315.11106   -1235.2727    -1055.869   -1235.2727    203.65387    11394.167            0            0   -12833.094    -9.118801   -1277.8339    14.308212    14.308212    14.308212    2929.2475 
    5000    290.18092   -1239.5254   -1074.3153   -1239.5254    228.83086    11365.275            0            0   -12833.631   -9.5535679    1529.2094    14.087786    14.087786    14.087786    2795.9423 
    5500    273.04778   -1238.3152   -1082.8596   -1238.3152    213.19862    11381.037            0            0   -12832.551   -9.2759549   -282.30815    14.226947    14.226947    14.226947    2879.6199 
    6000    283.87143    -1237.746   -1076.1281    -1237.746    227.01232    11366.496            0            0   -12831.255   -8.9366471   -306.45886    14.404772    14.404772    14.404772    2988.9537 
    6500    281.80574   -1228.9785   -1068.5367   -1228.9785    201.68634    11400.992            0            0   -12831.657   -8.8723499   -1546.2535    14.439485    14.439485    14.439485    3010.6145 
    7000    293.02536   -1220.8802   -1054.0507   -1220.8802    230.12472    11380.901            0            0   -12831.906   -8.9770147    882.97428    14.383148    14.383148    14.383148    2975.5131 
    7500     299.2546   -1237.2765   -1066.9005   -1237.2765     209.5649    11385.969            0            0   -12832.811   -9.0518049   -574.74012    14.343425    14.343425    14.343425     2950.928 
    8000    329.50824   -1228.2247   -1040.6243   -1228.2247    231.60304    11371.842            0            0    -12831.67   -9.1350273    1394.9806    14.299735    14.299735    14.299735    2924.0443 
    8500    344.56578   -1227.3666   -1031.1933   -1227.3666     224.6326    11379.404            0            0   -12831.403   -8.7395246   -293.02818    14.512269    14.512269    14.512269    3056.3705 
    9000     299.5932   -1233.4142   -1062.8453   -1233.4142    229.59068    11368.468            0            0   -12831.473   -8.9716414    439.75038    14.386019    14.386019    14.386019    2977.2952 
    9500    321.89077   -1255.1544   -1071.8908   -1255.1544    238.39289     11338.55            0            0   -12832.098    -9.219468    1440.1751    14.255944    14.255944    14.255944    2897.2631 
   10000    288.91931   -1254.3286   -1089.8368   -1254.3286    219.91176    11360.067            0            0   -12834.308   -9.0062414    -736.1681    14.367573    14.367573    14.367573    2965.8571 
   10500      289.425    -1213.176   -1048.3963    -1213.176    210.43778    11409.635            0            0   -12833.249   -9.0422704    318.48316    14.348465    14.348465    14.348465    2954.0396 
   11000    285.79031   -1218.5932   -1055.8829   -1218.5932    213.00198    11399.706            0            0   -12831.301   -9.4624181    445.12627    14.132876    14.132876    14.132876    2822.8751 
   11500    286.89641   -1233.1159   -1069.7758   -1233.1159    222.85194    11374.271            0            0   -12830.239   -9.3164443    1039.5096    14.206307    14.206307    14.206307    2867.1051 
   12000    322.34105   -1256.8606   -1073.3407   -1256.8606    234.74081    11342.968            0            0   -12834.569   -9.2122004    719.54105    14.259692    14.259692    14.259692    2899.5488 
   12500    321.52045   -1246.4543   -1063.4016   -1246.4543    178.11303    11409.593            0            0   -12834.161   -9.5068514    -2585.606    14.110824    14.110824    14.110824    2809.6815 
   13000    268.75197   -1234.6473   -1081.6375   -1234.6473    220.77322    11377.758            0            0   -12833.179   -9.5254621    911.98459    14.101628    14.101628    14.101628     2804.192 
   13500    300.63167   -1266.1895   -1095.0294   -1266.1895    222.37396    11343.245            0            0   -12831.808   -9.6840918    923.84325    14.024207    14.024207    14.024207    2758.2581 
   14000    316.14405    -1221.652   -1041.6603    -1221.652     206.2514    11406.104            0            0   -12834.008   -9.1196258   -341.72489     14.30778     14.30778     14.30778    2928.9825 
   14500    315.33851   -1232.7507   -1053.2176   -1232.7507    213.20928    11388.696            0            0   -12834.656   -8.9029204   -478.39832    14.422939    14.422939    14.422939    3000.2767 
   15000    300.54481   -1257.9276    -1086.817   -1257.9276    254.43405    11319.263            0            0   -12831.624   -8.9752024    1385.1965    14.384116    14.384116    14.384116    2976.1139 
   15500    274.68879   -1257.8851   -1101.4952   -1257.8851    231.49361     11344.21            0            0   -12833.589   -9.1717316   -213.01708    14.280634    14.280634    14.280634    2912.3426 
   16000    293.81853   -1263.7255   -1096.4444   -1263.7255    226.33093    11342.702            0            0   -12832.758   -9.0341126   -747.46704    14.352782    14.352782    14.352782    2956.7071 
   16500    333.11042     -1256.05   -1066.3986     -1256.05    236.45417    11338.622            0            0   -12831.126   -9.1145591    316.78703    14.310431    14.310431    14.310431    2930.6108 
   17000    306.51397   -1242.9457   -1068.4366   -1242.9457    197.86412    11388.669            0            0   -12829.479   -8.8364427   -2745.2704    14.459017    14.459017    14.459017    3022.8482 
   17500     291.6874   -1255.6431   -1089.5754   -1255.6431    229.07254    11348.206            0            0   -12832.921   -8.8790757   -598.29725    14.435838    14.435838    14.435838    3008.3339 
   18000    266.10547   -1250.7669   -1099.2638   -1250.7669    238.86903    11341.952            0            0   -12831.587   -9.0165397    563.20627    14.362101    14.362101    14.362101    2962.4696 
   18500     292.8785   -1268.0011   -1101.2552   -1268.0011    243.03551    11322.025            0            0   -12833.061   -9.0208609    723.94255    14.359807    14.359807    14.359807    2961.0505 
   19000    286.81116   -1231.8503   -1068.5587   -1231.8503    226.13038    11373.805            0            0   -12831.786   -9.0402765   -94.348769     14.34952     14.34952     14.34952    2954.6911 
   19500    291.98552   -1247.5851   -1081.3476   -1247.5851    229.50853    11355.691            0            0   -12832.784   -8.8986332    -242.0965    14.425255    14.425255    14.425255    3001.7222 
   20000    268.60473   -1232.4638   -1079.5378   -1232.4638    188.78603    11410.324            0            0   -12831.574    -9.131321   -2211.9466    14.301669    14.301669    14.301669    2925.2312 
   20500    293.27485   -1214.0917   -1047.1202   -1214.0917     187.6265    11431.118            0            0   -12832.836    -9.044727   -1894.2794    14.347166    14.347166    14.347166    2953.2372 
   21000     315.8896   -1263.8547   -1084.0078   -1263.8547    220.26453    11347.063            0            0   -12831.182   -8.9663433   -1143.6302    14.388852    14.388852    14.388852    2979.0544 
   21500    312.22558   -1220.9573   -1043.1964   -1220.9573    210.72469    11400.656            0            0   -12832.338    -9.366834    162.14662    14.180787    14.180787    14.180787    2851.6812 
   22000     277.7543   -1245.9178   -1087.7827   -1245.9178    209.10877    11376.607            0            0   -12831.634   -9.4431978   -586.50255    14.142458    14.142458    14.142458    2828.6207 
   22500    258.32957   -1229.7142   -1082.6382   -1229.7142    219.92555    11381.758            0            0   -12831.398   -9.3332317    416.84153    14.197785    14.197785    14.197785    2861.9481 
   23000    284.33505   -1240.5879   -1078.7061   -1240.5879    218.74209    11372.257            0            0   -12831.586   -9.3103531    152.81847    14.209405    14.209405    14.209405    2868.9808 
   23500    306.57739   -1263.7498   -1089.2046   -1263.7498    238.31843    11330.906            0            0   -12832.974   -9.3025705    903.27114    14.213366    14.213366    14.213366    2871.3811 
   24000     321.2067   -1256.9656   -1074.0915   -1256.9656     190.7512     11383.55            0            0   -12831.267   -9.5253941   -1969.2022    14.101661    14.101661    14.101661     2804.212 
   24500    284.33006   -1253.1628   -1091.2838   -1253.1628    223.37969    11357.092            0            0   -12833.634   -9.3253002    147.92302    14.201809    14.201809    14.201809    2864.3823 
   25000    317.07251   -1236.4871   -1055.9668   -1236.4871    196.28208    11398.538            0            0   -12831.307   -8.7065851    -2428.019    14.530548    14.530548    14.530548    3067.9336 
   25500    311.34738   -1224.3886   -1047.1277   -1224.3886    216.67196    11390.401            0            0   -12831.461   -9.0849241    32.350165    14.325974    14.325974    14.325974    2940.1704 
   26000    290.82358   -1224.3343   -1058.7583   -1224.3343     199.6931    11406.337            0            0   -12830.364   -9.4031126   -355.60814    14.162526    14.162526    14.162526     2840.679 
   26500    315.98388   -1254.0759   -1074.1753   -1254.0759    223.63033    11355.181            0            0   -12832.887    -9.181196    256.48139    14.275725    14.275725    14.275725    2909.3404 
   27000    281.65724   -1255.1858   -1094.8285   -1255.1858     227.0633    11350.395            0            0   -12832.644   -9.2322328     62.68041    14.249371    14.249371    14.249371    2893.2573 
   27500    296.82767   -1241.3439   -1072.3496   -1241.3439    181.70603    11408.386            0            0   -12831.435   -9.1120832   -2926.2662    14.311727    14.311727    14.311727     2931.407 
   28000    291.12679   -1246.8918   -1081.1432   -1246.8918    241.23368    11344.408            0            0   -12832.533    -9.180801    1916.4142     14.27593     14.27593     14.27593    2909.4656 
   28500    317.04986   -1236.7231   -1056.2156   -1236.7231    238.58861    11357.665            0            0   -12832.976   -9.0911085    1564.7484    14.322725    14.322725    14.322725    2938.1703 
   29000    278.34022   -1263.9226   -1105.4538   -1263.9226    209.94928    11359.976            0            0   -12833.848   -9.1866779   -1696.8609    14.272885    14.272885    14.272885    2907.6044 
   29500    324.73095   -1264.6445   -1079.7639   -1264.6445     224.9849    11343.504            0            0   -12833.133   -9.2669381    74.860931     14.23156     14.23156     14.23156    2882.4218 
   30000    298.43236    -1230.132   -1060.2241    -1230.132    195.76963    11407.315            0            0   -12833.217    -9.545139   -345.75665    14.091931    14.091931    14.091931    2798.4113 
   30500    277.16386   -1226.3747   -1068.5757   -1226.3747    200.81921    11405.008            0            0   -12832.202    -9.322609   -726.53581    14.203175    14.203175    14.203175    2865.2092 
   31000     273.4939    -1252.554   -1096.8445    -1252.554    207.98291    11371.262            0            0   -12831.799   -9.3115338   -935.14245    14.208804    14.208804    14.208804    2868.6171 
   31500    300.44883   -1252.3715   -1081.3156   -1252.3715    203.60686    11375.906            0            0   -12831.885   -8.9131739   -2046.2102    14.417406    14.417406    14.417406    2996.8253 
   32000    279.85111   -1224.8769    -1065.548   -1224.8769    229.62769    11376.764            0            0   -12831.268   -9.0369419     688.6785    14.351284    14.351284    14.351284    2955.7814 
   32500    293.39349   -1213.2904   -1046.2513   -1213.2904    241.05525    11377.465            0            0   -12831.811   -9.1611776    2513.6445    14.286116    14.286116    14.286116    2915.6977 
   33000    284.85063   -1239.5738   -1077.3984   -1239.5738    233.81904    11359.569            0            0   -12832.962   -9.4220235    1754.5721    14.153045    14.153045    14.153045    2834.9775 
   33500    333.74584   -1218.2851    -1028.272   -1218.2851    213.52689     11401.91            0            0   -12833.722   -9.1487985     407.7631    14.292556    14.292556    14.292556    2919.6429 
   34000    282.19282   -1249.5412   -1088.8791   -1249.5412    222.05319    11360.353            0            0   -12831.947   -9.2150409    -93.40343    14.258227    14.258227    14.258227    2898.6551 
   34500    286.60867   -1246.6371   -1083.4608   -1246.6371    207.50826    11380.635            0            0    -12834.78   -9.2581911   -885.14353    14.236041    14.236041    14.236041    2885.1451 
   35000    267.41159    -1242.544   -1090.2973    -1242.544    236.32177    11351.576            0            0   -12830.442   -9.1132136    755.80471    14.311135    14.311135    14.311135    2931.0434 
   35500    308.22742   -1265.0061   -1089.5215   -1265.0061    256.21927    11311.451            0            0   -12832.676   -9.1902571    2147.0523    14.271032    14.271032    14.271032     2906.472 
   36000    262.84306   -1251.7273   -1102.0816   -1251.7273    210.80679    11369.253            0            0   -12831.787   -9.0287754    -1142.015     14.35561     14.35561     14.35561    2958.4549 
   36500    305.93419   -1243.6458   -1069.4669   -1243.6458     218.6604    11371.022            0            0   -12833.328   -9.2793538    564.46834     14.22521     14.22521     14.22521    2878.5652 
   37000    278.69454    -1226.493   -1067.8225    -1226.493    203.00652    11402.723            0            0   -12832.223   -8.9754199   -936.52823       14.384       14.384       14.384    2976.0418 
   37500    326.12143   -1234.6882    -1049.016   -1234.6882    211.74254    11384.911            0            0   -12831.342   -9.2717899   -71.838913    14.229077    14.229077    14.229077    2880.9135 
   38000    306.25153   -1220.8449   -1046.4852   -1220.8449    226.90679     11384.33            0            0   -12832.082   -8.9013917    818.74827    14.423765    14.423765    14.423765     3000.792 
   38500    319.20616     -1270.62   -1088.8849     -1270.62    221.82861    11341.904            0            0   -12834.352   -9.2361026   -756.02539     14.24738     14.24738     14.24738     2892.045 
   39000    307.69233    -1234.951   -1059.7711    -1234.951    234.41995    11364.146            0            0   -12833.517    -9.348721    1509.8334    14.189939    14.189939    14.189939    2857.2063 
   39500    283.27245   -1237.5958   -1076.3189   -1237.5958    207.70226    11388.397            0            0   -12833.695   -9.3620634   -372.16791    14.183195    14.183195    14.183195    2853.1344 
   40000    291.51334   -1219.8551   -1053.8864   -1219.8551    183.53118    11428.696            0            0   -12832.082   -9.0498266   -2306.9292     14.34447     14.34447     14.34447    2951.5731 
   40500    283.23819   -1240.5008   -1079.2434   -1240.5008    233.52525    11357.994            0            0    -12832.02   -9.1561268    813.54659    14.288742    14.288742    14.288742    2917.3061 
   41000    268.68483   -1241.0483   -1088.0767   -1241.0483    215.89778    11376.956            0            0   -12833.902   -9.1546913   -657.05971    14.289489    14.289489    14.289489    2917.7636 
   41500    284.47286   -1249.4595   -1087.4992   -1249.4595    242.26939    11341.463            0            0   -12833.191    -9.246097    1530.8267    14.242245    14.242245    14.242245    2888.9189 
   42000     266.8476   -1253.5669   -1101.6413   -1253.5669    214.55683    11364.908            0            0   -12833.032   -9.5136721     134.5671    14.107451    14.107451    14.107451    2807.6672 
   42500    308.27037   -1253.8657   -1078.3566   -1253.8657    204.43854    11373.862            0            0   -12832.167   -9.3271887   -1126.4851     14.20085     14.20085     14.20085    2863.8023 
   43000    298.22434   -1229.0238   -1059.2343   -1229.0238    184.00555    11419.239            0            0   -12832.269   -9.4878427   -1336.1139    14.120241    14.120241    14.120241    2815.3107 
   43500     310.5386   -1233.2646   -1056.4642   -1233.2646    243.02588    11357.056            0            0   -12833.346   -9.5377135     3147.725    14.095587    14.095587    14.095587      2800.59 
   44000     277.6731   -1237.5725   -1079.4836   -1237.5725    232.41089    11364.187            0            0   -12834.171   -9.5673792    2075.8658    14.081003    14.081003    14.081003    2791.9061 
   44500    314.14855   -1238.4381   -1059.5824   -1238.4381    219.42696    11375.283            0            0   -12833.148   -9.3871278      999.181     14.17056     14.17056     14.17056    2845.5162 
   45000    305.93002   -1244.9367   -1070.7601   -1244.9367    229.24345    11358.368            0            0   -12832.548     -9.30853    1197.0549    14.210332    14.210332    14.210332    2869.5428 
   45500    293.36355   -1258.6659   -1091.6438   -1258.6659    259.02103    11316.607            0            0   -12834.294   -9.8072867    4250.5889    13.965237    13.965237    13.965237    2723.6101 
   46000    290.11159     -1213.62   -1048.4494     -1213.62    224.80264    11392.842            0            0   -12831.265   -9.1508946    1028.7305    14.291465    14.291465    14.291465    2918.9742 
   46500    309.51164   -1215.5156   -1039.2999   -1215.5156    221.54099    11394.066            0            0   -12831.123   -9.4157999    1184.9598    14.156162    14.156162    14.156162    2836.8513 
   47000    305.18576   -1223.5541   -1049.8013   -1223.5541    202.80926    11402.808            0            0   -12829.171   -9.4085402   -541.06075    14.159802    14.159802    14.159802    2839.0403 
   47500    319.38552   -1252.0334   -1070.1962   -1252.0334    221.13444    11360.596            0            0   -12833.764   -9.4693351    267.96788    14.129434    14.129434    14.129434    2820.8131 
   48000    274.25143   -1242.9676   -1086.8267   -1242.9676    218.42463    11370.418            0            0    -12831.81   -9.1288423   -22.728377    14.302964    14.302964    14.302964    2926.0254 
   48500    300.23348   -1265.1823    -1094.249   -1265.1823     210.1349    11358.433            0            0   -12833.751    -9.198016   -1279.2856    14.267018    14.267018    14.267018    2904.0202 
   49000     299.8943   -1251.7275   -1080.9873   -1251.7275    240.55512    11341.973            0            0   -12834.256   -9.3788548    2149.6288    14.174726    14.174726    14.174726    2848.0262 
   49500    307.84374   -1246.1919   -1070.9258   -1246.1919    183.25536    11403.463            0            0    -12832.91   -9.5184338   -2127.5847    14.105098    14.105098    14.105098    2806.2626 
   50000    270.86381   -1239.3247   -1085.1125   -1239.3247    235.73159    11358.559            0            0   -12833.616   -9.8352858    3568.6886    13.951972    13.951972    13.951972    2715.8565 
   50500    296.35186   -1245.1248   -1076.4014   -1245.1248    213.07263     11373.03            0            0   -12831.227   -9.3391785    154.84385     14.19477     14.19477     14.19477    2860.1257 
   51000    287.64414   -1247.0783   -1083.3125   -1247.0783     224.9033    11361.238            0            0   -12833.219    -9.403803    964.95033    14.162179    14.162179    14.162179    2840.4705 
   51500    315.33299   -1206.4466   -1026.9165   -1206.4466    240.45861    11386.951            0            0   -12833.857   -9.5984442     4157.707    14.065796    14.065796    14.065796    2782.8702 
   52000    287.45112   -1209.0344   -1045.3785   -1209.0344    181.33712    11441.324            0            0   -12831.695   -9.3265582   -1171.7297     14.20117     14.20117     14.20117    2863.9959 
   52500    292.19263   -1250.1626   -1083.8072   -1250.1626      201.308    11381.636            0            0   -12833.107   -9.4497293   -1297.2785    14.139199    14.139199    14.139199    2826.6656 
   53000     329.3025   -1248.3455   -1060.8621   -1248.3455    235.34442    11347.336            0            0   -12831.026   -9.7202805    2588.8947    14.006781    14.006781    14.006781    2747.9891 
   53500    298.34033    -1218.284   -1048.4285    -1218.284    209.97375    11404.451            0            0   -12832.709   -9.4092655    573.36182    14.159438    14.159438    14.159438    2838.8215 
   54000    293.38419   -1236.7103   -1069.6765   -1236.7103     221.1656    11373.664            0            0    -12831.54   -9.4142984    800.57443    14.156915    14.156915    14.156915    2837.3038 
   54500    286.62453   -1239.9302   -1076.7449   -1239.9302    230.84312    11363.051            0            0   -12833.825   -8.9637156    269.78347    14.390258    14.390258    14.390258    2979.9277 
   55000    326.66529   -1223.2183   -1037.2364   -1223.2183     201.9034    11407.407            0            0   -12832.529   -9.0911202    -972.9027    14.322719    14.322719    14.322719    2938.1665 
   55500    314.55944   -1222.7729   -1043.6833   -1222.7729    178.31351    11430.262            0            0   -12831.348   -9.0211682   -2601.9716    14.359644    14.359644    14.359644    2960.9496 
   56000     310.8044   -1245.3395   -1068.3877   -1245.3395    228.80325    11360.136            0            0   -12834.279   -9.3524195    1093.7086    14.188068    14.188068    14.188068    2856.0764 
   56500    290.78251   -1224.8646   -1059.3121   -1224.8646    237.77966    11368.668            0            0   -12831.312   -9.4349773    2502.7329    14.146564    14.146564    14.146564    2831.0852 
   57000     326.7829   -1208.9414   -1022.8926   -1208.9414    231.83667    11390.118            0            0   -12830.896   -9.3273319     2279.342    14.200778    14.200778    14.200778    2863.7584 
   57500    315.33983   -1221.3371   -1041.8032   -1221.3371    238.75031     11372.98            0            0   -12833.068   -9.3312013    2296.5617    14.198814    14.198814    14.198814    2862.5708 
   58000    296.61606   -1208.4732   -1039.5994   -1208.4732    229.03146    11392.972            0            0   -12830.477   -9.0102781     1418.661    14.365427    14.365427    14.365427    2964.5283 
   58500    315.79714   -1236.8526   -1057.0583   -1236.8526    222.22167    11373.084            0            0   -12832.158   -9.2937621    888.13536    14.217855    14.217855    14.217855    2874.1025 
   59000    309.65974   -1229.0959   -1052.7959   -1229.0959    219.17024     11385.88            0            0   -12834.146   -9.5638614    1507.8497     14.08273     14.08273     14.08273    2792.9331 
   59500    292.92232   -1201.8185   -1035.0477   -1201.8185    186.60126    11442.877            0            0   -12831.297   -8.9008915   -1152.6299    14.424035    14.424035    14.424035    3000.9606 
   60000    268.90032     -1233.93   -1080.8358     -1233.93    219.93124    11379.008            0            0   -12832.869   -9.0789943    97.291664    14.329093    14.329093    14.329093    2942.0907 
   60500    322.81072   -1230.9198   -1047.1324   -1230.9198    200.34169    11400.652            0            0   -12831.914    -9.306105   -571.19637    14.211566    14.211566    14.211566    2870.2905 
   61000    323.39688   -1243.1094   -1058.9883   -1243.1094    209.00089    11381.886            0            0   -12833.997   -9.7786457    829.22829    13.978858    13.978858    13.978858    2731.5873 
   61500    314.62183   -1226.1733   -1047.0481   -1226.1733    186.20595    11420.531            0            0    -12832.91   -9.6617829    -817.9408    14.034992    14.034992    14.034992    2764.6269 
   62000    300.62544   -1250.4314   -1079.2749   -1250.4314     207.8544     11374.32            0            0   -12832.606   -9.8779339    466.24259    13.931864    13.931864    13.931864    2704.1307 
   62500    317.88052   -1223.1422   -1042.1618   -1223.1422     202.5966    11407.754            0            0   -12833.493   -9.9268881    869.37566    13.908925    13.908925    13.908925    2690.7954 
   63000    307.56266   -1241.4652   -1066.3591   -1241.4652    202.80283    11390.064            0            0   -12834.332   -9.7208313    181.29526    14.006516    14.006516    14.006516    2747.8334 
   63500    297.09328   -1241.2966   -1072.1511   -1241.2966    188.43416    11403.178            0            0   -12832.909   -9.6774243   -1414.7952    14.027427    14.027427    14.027427    2760.1585 
   64000    290.00477   -1243.0703   -1077.9605   -1243.0703     222.8401     11365.93            0            0    -12831.84   -9.8895588    2361.6998    13.926403    13.926403    13.926403    2700.9521 
   64500    319.34226   -1247.5488   -1065.7362   -1247.5488    181.75231    11403.175            0            0   -12832.476   -9.4956247   -1880.5238    14.116383    14.116383    14.116383    2813.0034 
   65000    326.90558   -1240.1625   -1054.0438   -1240.1625    230.74659    11363.036            0            0   -12833.945   -9.6081045     2409.616    14.061081    14.061081    14.061081    2780.0723 
   65500    279.00005   -1253.6817   -1094.8373   -1253.6817    180.24233    11400.888            0            0   -12834.812   -9.1826498   -3442.0426    14.274972    14.274972    14.274972    2908.8798 
   66000    276.34735   -1249.1005   -1091.7663   -1249.1005    220.18587     11365.51            0            0   -12834.797   -9.3563883   -30.717206    14.186062    14.186062    14.186062    2854.8649 
   66500    303.84197   -1266.7397   -1093.7519   -1266.7397     244.1181    11320.488            0            0   -12831.346     -9.22285    837.32941    14.254201    14.254201    14.254201    2896.2007 
   67000    289.15604   -1232.1299   -1067.5034   -1232.1299    244.28131    11356.833            0            0   -12833.245   -9.0454989    1555.1623    14.346758    14.346758    14.346758    2952.9852 
   67500    302.75606    -1256.982   -1084.6125    -1256.982    196.22297    11380.879            0            0   -12834.084   -9.1307123   -2623.7865    14.301987    14.301987    14.301987    2925.4262 
   68000      317.593   -1251.1104   -1070.2937   -1251.1104    209.90086    11372.886            0            0   -12833.897   -9.2686337   -608.95405    14.230692    14.230692    14.230692    2881.8945 
   68500    298.15039   -1261.6506   -1091.9033   -1261.6506    244.23734    11328.691            0            0   -12834.579   -9.4234421    2096.4642    14.152334    14.152334    14.152334    2834.5507 
   69000    282.60228   -1264.6994   -1103.8041   -1264.6994    203.42861    11363.568            0            0   -12831.696   -9.2103438   -2082.7823     14.26065     14.26065     14.26065    2900.1333 
   69500    285.11807   -1267.4598   -1105.1322   -1267.4598    234.90261    11329.715            0            0   -12832.078   -9.3337626    530.49198    14.197515    14.197515    14.197515    2861.7853 
   70000    327.86942   -1279.3345    -1092.667   -1279.3345    257.33364    11297.967            0            0   -12834.635   -9.3339141    1676.7532    14.197439    14.197439    14.197439    2861.7389 
   70500    294.07531    -1278.093   -1110.6657    -1278.093    209.62016    11346.612            0            0   -12834.326   -9.3807572   -1556.4434    14.173767    14.173767    14.173767    2847.4487 
   71000     309.9988   -1256.2868   -1079.7938   -1256.2868     224.3185    11351.814            0            0   -12832.419   -9.2799821    146.88165    14.224889    14.224889    14.224889    2878.3703 
   71500    296.62702   -1210.9594   -1042.0794   -1210.9594    184.15821    11436.679            0            0   -12831.797   -9.2600355   -1297.1067    14.235095    14.235095    14.235095    2884.5705 
   72000     305.4228   -1258.3229   -1084.4351   -1258.3229    238.20675    11337.156            0            0   -12833.685   -9.1423656     977.6163    14.295908    14.295908    14.295908    2921.6973 
   72500    306.68172   -1251.3937   -1076.7892   -1251.3937    199.23831    11381.678            0            0    -12832.31   -9.1968576   -2122.5604    14.267617    14.267617    14.267617     2904.386 
   73000    314.18473   -1264.4886   -1085.6124   -1264.4886    219.73383    11348.936            0            0   -12833.158   -9.2172589   -453.62979    14.257083    14.257083    14.257083    2897.9575 
   73500    298.57195   -1224.0783    -1054.091   -1224.0783    182.83403      11425.8            0            0   -12832.712   -9.1035902   -2549.9998    14.316176    14.316176    14.316176    2934.1418 
   74000    276.87456   -1225.0267   -1067.3924   -1225.0267    212.47965    11395.529            0            0   -12833.035    -8.851453   -711.69397     14.45084     14.45084     14.45084     3017.722 
   74500    301.73083   -1225.2993   -1053.5134   -1225.2993    240.26166    11365.705            0            0   -12831.266    -9.086588    2394.3396      14.3251      14.3251      14.3251     2939.632 
   75000     293.4433   -1229.3614   -1062.2939   -1229.3614    225.31606    11376.299            0            0   -12830.976   -9.0757111    88.485341     14.33082     14.33082     14.33082     2943.155 
   75500    331.60892   -1248.6143   -1059.8178   -1248.6143     243.2823    11341.987            0            0   -12833.884    -8.956126    993.05632    14.394322    14.394322    14.394322     2982.453 
   76000    337.08801   -1239.5469    -1047.631   -1239.5469    220.75116    11373.207            0            0   -12833.505   -8.8909189    -344.2282    14.429426    14.429426    14.429426    3004.3267 
   76500    269.19108   -1228.9867   -1075.7268   -1228.9867    199.58112    11403.784            0            0   -12832.351   -9.0047749   -1626.8164    14.368353    14.368353    14.368353    2966.3401 
   77000    279.60017   -1228.6959   -1069.5099   -1228.6959    252.15516    11350.399            0            0    -12831.25   -8.8553499    2184.1699    14.448719    14.448719    14.448719     3016.394 
   77500    309.72975   -1258.5586   -1082.2187   -1258.5586    220.25127    11353.783            0            0   -12832.592   -8.9647961   -712.59594     14.38968     14.38968     14.38968    2979.5686 
   78000     294.1637   -1258.3042   -1090.8266   -1258.3042    228.35208    11343.073            0            0   -12829.729   -8.7322235   -806.79518    14.516313    14.516313    14.516313    3058.9259 
   78500    306.32272   -1214.4718   -1040.0716   -1214.4718    210.24527    11407.207            0            0   -12831.924   -9.1586595   -127.12167    14.287425    14.287425    14.287425    2916.4994 
   79000    280.10659   -1238.8282   -1079.3538   -1238.8282    225.75422    11364.065            0            0   -12828.647    -9.154936    369.58629    14.289362    14.289362    14.289362    2917.6856 
   79500    298.87836   -1244.0922   -1073.9304   -1244.0922    198.59942    11391.143            0            0   -12833.834   -9.0301557   -1993.3774    14.354878    14.354878    14.354878    2958.0027 
   80000    290.72307   -1242.5655   -1077.0468   -1242.5655    191.28288    11399.003            0            0   -12832.852   -9.3906782   -1678.8884    14.168774    14.168774    14.168774    2844.4404 
   80500    306.96604   -1219.0163   -1044.2499   -1219.0163    197.38046     11416.86            0            0   -12833.257   -9.0772791   -1046.9771    14.329995    14.329995    14.329995    2942.6466 
   81000    294.45299   -1236.1783    -1068.536   -1236.1783    246.95887    11348.384            0            0   -12831.521   -9.2712972    2874.7377    14.229329    14.229329    14.229329    2881.0666 
   81500    335.25341   -1228.6062   -1037.7347   -1228.6062     204.8595    11397.896            0            0   -12831.362    -9.465195    383.58757    14.131494    14.131494    14.131494     2822.047 
   82000     300.8302   -1212.3273   -1041.0542   -1212.3273    231.70006    11386.314            0            0   -12830.342   -9.2081525    1914.9656    14.261781    14.261781    14.261781    2900.8235 
   82500    329.59992   -1226.3233   -1038.6707   -1226.3233    230.64818    11376.455            0            0   -12833.426   -9.6061846    2857.1624    14.062017    14.062017    14.062017    2780.6279 
   83000    295.61937    -1231.073   -1062.7667    -1231.073    200.63818    11400.305            0            0   -12832.016   -8.8643972   -1328.0153    14.443802    14.443802    14.443802    3013.3154 
   83500    289.99401   -1235.0795   -1069.9758   -1235.0795    225.05368    11370.581            0            0   -12830.714   -9.1272006    855.35793    14.303821    14.303821    14.303821    2926.5517 
   84000    295.00617   -1249.5377   -1081.5805   -1249.5377    216.37517    11367.499            0            0   -12833.412   -9.1193934   -571.64305    14.307902    14.307902    14.307902    2929.0572 
   84500    305.35029    -1229.021   -1055.1745    -1229.021    221.68083     11383.13            0            0   -12833.832   -9.3969658    1450.7691    14.165613    14.165613    14.165613    2842.5372 
   85000    313.48443   -1240.3514   -1061.8738   -1240.3514    230.05803    11361.331            0            0    -12831.74   -9.0742304    963.67858      14.3316      14.3316      14.3316    2943.6353 
   85500    273.11346   -1241.4495   -1085.9566   -1241.4495    207.37073    11384.471            0            0   -12833.291   -9.2505225    -532.2004    14.239973    14.239973    14.239973    2887.5369 
   86000    317.52835   -1227.3496   -1046.5697   -1227.3496    228.60418    11376.812            0            0   -12832.765   -9.4627566    1769.8096    14.132708    14.132708    14.132708    2822.7741 
   86500    274.70169   -1237.6816   -1081.2844   -1237.6816    202.39203    11393.556            0            0    -12833.63   -9.2639313   -879.89571      14.2331      14.2331      14.2331    2883.3574 
   87000    300.44568   -1237.6341   -1066.5799   -1237.6341    211.56138     11383.31            0            0   -12832.506   -9.2109891   -491.59997    14.260317    14.260317    14.260317    2899.9301 
   87500    298.29666   -1228.4248   -1058.5941   -1228.4248    224.82909    11380.562            0            0   -12833.816   -9.7255116    2158.3355    14.004269    14.004269    14.004269     2746.511 
   88000    312.30184    -1256.008   -1078.2037    -1256.008    230.17118    11347.831            0            0    -12834.01   -9.9718509    2853.7743    13.887988    13.887988    13.887988    2678.6627 
   88500    296.75905   -1225.2603    -1056.305   -1225.2603    204.18338    11403.764            0            0   -12833.208    -9.422758   -362.77177    14.152677    14.152677    14.152677    2834.7565 
   89000    293.07045   -1234.9078   -1068.0526   -1234.9078    224.73502    11372.513            0            0   -12832.155   -9.6932254    1383.3609      14.0198      14.0198      14.0198    2755.6591 
   89500    292.95459   -1248.0614   -1081.2722   -1248.0614    222.36982    11362.858            0            0   -12833.289   -9.4984029    221.73363    14.115006    14.115006    14.115006    2812.1806 
   90000    299.12807   -1277.2243   -1106.9203   -1277.2243    225.31755    11332.026            0            0   -12834.567   -9.3944198   -445.54661    14.166893    14.166893    14.166893    2843.3076 
   90500    300.05003   -1234.7432   -1063.9143   -1234.7432    230.06596    11367.858            0            0   -12832.668   -9.1951042    705.42661    14.268524    14.268524    14.268524    2904.9399 
   91000     314.2403   -1230.8915   -1051.9836   -1230.8915     214.3309    11385.566            0            0   -12830.788   -8.8551171   -759.17146    14.448846    14.448846    14.448846    3016.4734 
   91500     301.8664   -1253.1979   -1081.3349   -1253.1979    209.36605    11371.339            0            0   -12833.903   -8.7516052     -1999.54    14.505589    14.505589    14.505589    3052.1515 
   92000    289.73018   -1268.7656   -1103.8121   -1268.7656    255.19885    11309.142            0            0   -12833.107   -9.2860478    1597.3682    14.221791    14.221791    14.221791    2876.4901 
   92500    304.14263   -1238.9226   -1065.7637   -1238.9226    213.55664    11379.182            0            0   -12831.661   -8.8908325   -1011.9174    14.429473    14.429473    14.429473    3004.3559 
   93000    297.81134   -1258.9624    -1089.408   -1258.9624    256.91379    11317.483            0            0   -12833.359   -9.1859633    2420.9236    14.273255    14.273255    14.273255    2907.8306 
   93500    299.37754   -1248.9506   -1078.5046   -1248.9506    238.30853    11346.551            0            0    -12833.81   -9.4022805    2153.9323    14.162944    14.162944    14.162944    2840.9304 
   94000    289.28448   -1260.9977    -1096.298   -1260.9977    243.25084    11328.233            0            0   -12832.481   -9.2015945    1075.1099    14.265168    14.265168    14.265168    2902.8909 
   94500    305.22757   -1278.3903   -1104.6136   -1278.3903    231.65794     11322.88            0            0   -12832.928    -9.045287   -682.90654     14.34687     14.34687     14.34687    2953.0544 
   95000    322.00363   -1252.1826   -1068.8548   -1252.1826    224.27303    11356.357            0            0   -12832.813   -8.7406052   -1331.3636    14.511671    14.511671    14.511671    3055.9926 
   95500    295.82433   -1270.6278   -1102.2047   -1270.6278    243.13921    11319.178            0            0   -12832.945   -9.1863185    625.86644    14.273071    14.273071    14.273071    2907.7181 
   96000     288.8006    -1245.533   -1081.1088    -1245.533    192.52892    11394.639            0            0   -12832.701   -9.0142491   -2332.1369    14.363317    14.363317    14.363317    2963.2224 
   96500    300.77533   -1232.0575   -1060.8157   -1232.0575    240.30702    11361.443            0            0   -12833.807    -8.879014    1176.1366    14.435872    14.435872    14.435872    3008.3549 
   97000    293.35681   -1216.8504   -1049.8322   -1216.8504    209.30031     11405.59            0            0   -12831.741    -9.249817    62.668926    14.240335    14.240335    14.240335    2887.7571 
   97500    281.89407   -1233.0774   -1072.5853   -1233.0774    215.14623    11384.865            0            0   -12833.088   -9.1879337    100.60134    14.272235    14.272235    14.272235     2907.207 
   98000    329.03949   -1226.8481   -1039.5145   -1226.8481    198.44395    11407.697            0            0   -12832.989   -9.3505931   -584.67811    14.188992    14.188992    14.188992    2856.6343 
   98500    311.81244    -1248.366   -1070.8404    -1248.366    271.83972    11311.993            0            0   -12832.198   -9.3719866    4456.3359    14.178187    14.178187    14.178187    2850.1134 
   99000    303.57568   -1237.0145   -1064.1784   -1237.0145    195.99116    11399.535            0            0    -12832.54   -8.9572557   -2299.9687    14.393716    14.393716    14.393716    2982.0768 
   99500    311.88053   -1243.0384    -1065.474   -1243.0384    201.59258    11387.529            0            0    -12832.16   -9.2828851   -865.63051    14.223406    14.223406    14.223406    2877.4702 
  100000     341.5465   -1219.3005   -1024.8462   -1219.3005    225.19194    11387.076            0            0   -12831.568    -8.924467     1146.717    14.411323    14.411323    14.411323    2993.0331 
  100500    267.01382   -1252.0068   -1099.9866   -1252.0068    230.01509    11350.918            0            0    -12832.94   -8.9883223   -16.222572    14.377114    14.377114    14.377114    2971.7698 
  101000    283.19275   -1235.8652   -1074.6337   -1235.8652    259.24785    11336.533            0            0   -12831.646   -9.0805118    2488.9358    14.328294    14.328294    14.328294     2941.599 
  101500    306.03513    -1216.365   -1042.1286    -1216.365     191.9942    11424.863            0            0   -12833.222   -8.8660426   -1782.9753    14.442909    14.442909    14.442909    3012.7562 
  102000    305.64454   -1229.8015   -1055.7874   -1229.8015    209.82025    11392.209            0            0   -12831.831   -9.0458696   -515.42118    14.346562    14.346562    14.346562    2952.8642 
  102500    298.21046   -1242.6072   -1072.8257   -1242.6072    202.09679    11387.246            0            0    -12831.95   -9.2730327   -1039.7046    14.228442    14.228442    14.228442    2880.5274 
  103000    329.38425   -1248.7201   -1061.1902   -1248.7201    233.47036    11351.197            0            0   -12833.387   -8.9996547    457.02269    14.371077    14.371077    14.371077    2968.0277 
  103500    315.48489   -1224.6954   -1045.0789   -1224.6954    231.90522    11374.202            0            0   -12830.803   -8.9852821    775.70447    14.378736    14.378736    14.378736    2972.7753 
  104000    294.75805   -1228.8352   -1061.0192   -1228.8352    237.37221    11365.967            0            0   -12832.174   -9.2562074    1900.0991    14.237058    14.237058    14.237058    2885.7634 
  104500    280.12026   -1252.1375   -1092.6553   -1252.1375    239.91192    11340.018            0            0   -12832.067   -9.4874909    2036.7502    14.120416    14.120416    14.120416    2815.4151 
  105000     287.3211   -1267.8014   -1104.2195   -1267.8014    245.14753    11319.852            0            0   -12832.801   -9.4115081    1293.8337    14.158314    14.158314    14.158314     2838.145 
  105500    276.21595   -1232.6051   -1075.3457   -1232.6051    185.11719    11416.082            0            0   -12833.804   -9.0326427   -2688.3439    14.353561    14.353561    14.353561    2957.1882 
  106000    328.77558   -1222.5023   -1035.3189   -1222.5023    209.66446    11400.746            0            0   -12832.913   -9.1351211    42.349505    14.299686    14.299686    14.299686    2924.0143 
  106500    257.14829   -1243.4479   -1097.0444   -1243.4479    242.80116    11345.906            0            0   -12832.155   -9.1769526    1345.6162    14.277925    14.277925    14.277925    2910.6857 
  107000    310.95229   -1254.5135   -1077.4776   -1254.5135    243.10112    11335.814            0            0   -12833.429   -9.5760635    2514.6549    14.076746    14.076746    14.076746    2789.3742 
  107500    314.54597   -1245.5524   -1066.4704   -1245.5524    191.01713    11397.998            0            0   -12834.568   -8.9190549   -2864.2773    14.414237    14.414237    14.414237    2994.8492 
  108000    284.79219   -1247.1859   -1085.0439   -1247.1859    198.63676    11387.341            0            0   -12833.164   -9.0305339   -2114.8951    14.354678    14.354678    14.354678    2957.8788 
  108500    275.74521   -1244.0298   -1087.0385   -1244.0298     209.8639    11379.597            0            0    -12833.49    -9.529595    -107.6548    14.099589    14.099589    14.099589    2802.9759 
  109000    307.34127   -1237.5736   -1062.5936   -1237.5736    187.18141    11408.734            0            0   -12833.489   -9.5160943   -1795.7824    14.106254    14.106254    14.106254    2806.9525 
  109500    286.83318    -1247.778    -1084.474    -1247.778    216.35202    11370.301            0            0   -12834.431   -9.6133808    448.86396    14.058508    14.058508    14.058508    2778.5464 
  110000    324.97604   -1236.5321    -1051.512   -1236.5321    221.09446    11374.763            0            0    -12832.39   -9.0928525    407.78223    14.321809    14.321809    14.321809    2937.6067 
  110500    313.36002   -1230.1579   -1051.7511   -1230.1579    233.22449    11369.961            0            0   -12833.343   -9.3493951    1843.4087    14.189598    14.189598    14.189598    2857.0003 
  111000    324.80503   -1261.9255   -1077.0028   -1261.9255     197.6774    11371.712            0            0   -12831.315   -9.1090675   -2381.8277    14.313306    14.313306    14.313306    2932.3775 
  111500    315.81882   -1192.9348   -1013.1282   -1192.9348    191.86905    11449.133            0            0   -12833.937   -8.9704121   -936.80081    14.386676    14.386676    14.386676    2977.7032 
  112000    328.75876   -1238.2504   -1051.0766   -1238.2504    262.14369    11332.526            0            0    -12832.92   -8.8397609    2315.8739    14.457208    14.457208    14.457208    3021.7135 
  112500    315.82293   -1232.3567   -1052.5477   -1232.3567    217.06308     11384.03            0            0   -12833.449   -9.0632084    458.32482    14.337407    14.337407    14.337407    2947.2151 
  113000     303.9133   -1238.8658   -1065.8374   -1238.8658    223.43073    11370.053            0            0    -12832.35    -9.305216    614.88032    14.212019    14.212019    14.212019    2870.5647 
  113500    307.73049   -1260.7516   -1085.5499   -1260.7516    231.64529    11339.884            0            0   -12832.281   -9.2754599    790.65473      14.2272      14.2272      14.2272    2879.7736 
  114000    279.15726   -1240.2692   -1081.3352   -1240.2692    221.85024    11370.167            0            0   -12832.286   -9.0302851    26.843877     14.35481     14.35481     14.35481    2957.9603 
  114500    310.88454   -1258.6539   -1081.6566   -1258.6539    222.82556    11351.261            0            0   -12832.741   -9.3246269    365.06229    14.202151    14.202151    14.202151    2864.5891 
  115000    303.86435   -1254.0882   -1081.0877   -1254.0882    203.36525    11376.657            0            0    -12834.11   -9.1668078   -1056.0765     14.28319     14.28319     14.28319    2913.9069 
  115500    289.33102   -1256.1532    -1091.427   -1256.1532    201.29381    11376.578            0            0   -12834.025   -9.1534564   -1876.7883    14.290132    14.290132    14.290132    2918.1572 
  116000    296.90712   -1231.7734   -1062.7339   -1231.7734    192.56573    11408.439            0            0   -12832.778   -9.0205116   -1584.0046    14.359992    14.359992    14.359992    2961.1652 
  116500    289.51869   -1242.1561   -1077.3231   -1242.1561    188.49911      11401.9            0            0   -12832.555   -9.2057219     -1945.09    14.263036    14.263036    14.263036    2901.5894 
  117000    284.66213   -1244.8121   -1082.7441   -1244.8121    235.16254    11353.877            0            0   -12833.852   -8.9131483    250.94356     14.41742     14.41742     14.41742    2996.8339 
  117500    303.55675   -1248.5353   -1075.7099   -1248.5353    220.61999    11363.386            0            0   -12832.541   -9.0134727    80.719545    14.363729    14.363729    14.363729    2963.4776 
  118000    277.83754   -1246.1891   -1088.0065   -1246.1891    255.10969    11329.168            0            0   -12830.467   -9.2370781    2430.6124    14.246879    14.246879    14.246879    2891.7396 
  118500    298.76273   -1217.7627   -1047.6667   -1217.7627    196.16589    11416.268            0            0   -12830.196   -8.9640516   -1215.3354    14.390078    14.390078    14.390078     2979.816 
  119000    322.03351   -1243.3518   -1060.0069   -1243.3518    188.71213    11400.296            0            0    -12832.36   -9.1202091   -2377.7901    14.307475    14.307475    14.307475    2928.7952 
  119500    305.13407   -1248.0447   -1074.3213   -1248.0447    203.90547    11379.526            0            0   -12831.476   -9.3988633   -907.37946     14.16466     14.16466     14.16466    2841.9633 
  120000    276.23343   -1252.8306   -1095.5613   -1252.8306    212.01931    11367.892            0            0   -12832.742   -9.2171775   -753.27919    14.257125    14.257125    14.257125    2897.9831 
  120500    310.37544   -1237.4469   -1060.7393   -1237.4469     215.5685      11378.5            0            0   -12831.516    -9.392768    916.34417    14.167723    14.167723    14.167723    2843.8076 
  121000    307.33656   -1217.9251   -1042.9478   -1217.9251     213.4903    11400.765            0            0   -12832.181   -9.0913432    140.02112    14.322602    14.322602    14.322602    2938.0944 
  121500    287.99489   -1216.4009   -1052.4354   -1216.4009    207.50548    11408.085            0            0   -12831.992   -8.9646232   -291.74607    14.389772    14.389772    14.389772     2979.626 
  122000    282.78913    -1238.048   -1077.0464    -1238.048    207.56812    11385.268            0            0   -12830.884   -9.0513856   -1169.6552    14.343647    14.343647    14.343647    2951.0647 
  122500     311.1088   -1231.8061    -1054.681   -1231.8061    212.76172    11388.377            0            0   -12832.944   -9.1682122   -495.66745    14.282461    14.282461    14.282461    2913.4606 
  123000    313.44642   -1208.1146   -1029.6587   -1208.1146    236.98244    11387.321            0            0   -12832.418   -9.3810327    3089.8779    14.173629    14.173629    14.173629    2847.3651 
  123500    326.55017   -1226.8702   -1040.9538   -1226.8702    201.42058     11405.49            0            0   -12833.781   -9.0141657   -1122.7261    14.363361    14.363361    14.363361    2963.2498 
  124000    307.90265   -1224.2175   -1048.9178   -1224.2175    211.03157     11397.88            0            0   -12833.129   -9.2955184    235.47491     14.21696     14.21696     14.21696    2873.5594 
  124500    291.75521   -1240.3827   -1074.2763   -1240.3827    202.80775     11387.92            0            0   -12831.111   -9.2114831    -1079.192    14.260062    14.260062    14.260062    2899.7746 
  125000    296.53389   -1248.4666   -1079.6395   -1248.4666    201.92584    11381.767            0            0    -12832.16   -9.4479273   -1034.9688    14.140098    14.140098    14.140098    2827.2047 
  125500     298.2253   -1250.6359   -1080.8459   -1250.6359    219.83871    11363.547            0            0   -12834.022   -9.3746188    38.770103     14.17686     14.17686     14.17686    2849.3132 
  126000    255.44471   -1263.0717   -1117.6382   -1263.0717    231.91084    11339.814            0            0   -12834.797   -9.5238879    762.09422    14.102405    14.102405    14.102405    2804.6555 
  126500    318.82372   -1248.5969   -1067.0795   -1248.5969     202.8392    11380.916            0            0   -12832.352   -9.3850006   -1148.4517    14.171631    14.171631    14.171631    2846.1612 
  127000    280.75898   -1263.6361   -1103.7902   -1263.6361    214.93975    11354.051            0            0   -12832.627   -9.5529976   -379.08606    14.088066    14.088066    14.088066    2796.1092 
  127500    306.38409   -1224.9038   -1050.4687   -1224.9038    219.93838    11389.087            0            0    -12833.93    -9.629678    1254.4786    14.050572    14.050572    14.050572     2773.844 
  128000    299.09011   -1251.1489   -1080.8665   -1251.1489    201.72915    11379.376            0            0   -12832.254   -9.5019081   -1029.7281     14.11327     14.11327     14.11327    2811.1432 
  128500    303.88498   -1223.8844   -1050.8721   -1223.8844    185.18947    11423.715            0            0   -12832.789    -9.338148    -1533.605    14.195293    14.195293    14.195293    2860.4414 
  129000    311.51987   -1255.3072   -1077.9481   -1255.3072    225.82675    11353.123            0            0   -12834.257   -9.6830363    1454.4902    14.024716    14.024716    14.024716    2758.5588 
  129500    295.03294    -1240.482   -1072.5095    -1240.482     212.0717    11379.416            0            0    -12831.97   -9.2816172   -299.28992    14.224054    14.224054    14.224054    2877.8632 
  130000     315.3733   -1248.1684   -1068.6154   -1248.1684    222.72788    11361.719            0            0   -12832.615    -9.139877   -1.7565296    14.297205    14.297205    14.297205    2922.4928 
  130500    319.69213   -1256.6497   -1074.6378   -1256.6497    245.77571    11330.332            0            0   -12832.757   -9.1096852    859.51034    14.312983    14.312983    14.312983    2932.1787 
  131000    301.23502   -1251.8448   -1080.3412   -1251.8448    239.45831    11341.279            0            0   -12832.582   -9.2741716    1231.6092    14.227859    14.227859    14.227859    2880.1736 
  131500    313.93386   -1246.8283   -1068.0948   -1246.8283    240.59076    11344.706            0            0   -12832.125   -9.2901873    1957.6446    14.219678    14.219678    14.219678    2875.2084 
  132000    303.74099   -1242.1777   -1069.2474   -1242.1777    244.76387    11346.748            0            0    -12833.69   -8.7865662    522.31567    14.486324    14.486324    14.486324    3040.0072 
  132500    306.19001   -1257.8245   -1083.4999   -1257.8245    233.22231    11340.927            0            0   -12831.974   -8.7060212   -358.22746    14.530861    14.530861    14.530861    3068.1323 
  133000    290.63354   -1241.0675   -1075.5998   -1241.0675    232.96057    11358.614            0            0   -12832.642   -9.1877641    1060.9481    14.272323    14.272323    14.272323    2907.2606 
  133500    316.46687   -1242.2651   -1062.0896   -1242.2651    248.24219     11343.16            0            0   -12833.668    -8.940938     1539.736    14.402468    14.402468    14.402468    2987.5193 
  134000    277.85714   -1236.0699   -1077.8762   -1236.0699    221.35942    11374.473            0            0   -12831.903   -8.7366875   -543.96076     14.51384     14.51384     14.51384     3057.363 
  134500     290.1771   -1246.0446   -1080.8367   -1246.0446    210.32197    11375.455            0            0   -12831.821   -8.9925156   -1323.2591    14.374879    14.374879    14.374879     2970.384 
  135000    300.13836   -1232.6792      -1061.8   -1232.6792    211.93464    11386.174            0            0   -12830.788   -8.9123064   -576.84242    14.417874    14.417874    14.417874     2997.117 
  135500    281.05508   -1257.5369   -1097.5224   -1257.5369    238.45916    11334.169            0            0   -12830.165   -8.9363173     361.7367    14.404949    14.404949    14.404949     2989.064 
  136000     277.9027   -1252.9148   -1094.6951   -1252.9148    242.91547    11336.836            0            0   -12832.667   -8.9490558    910.08896    14.398111    14.398111    14.398111    2984.8093 
  136500    306.37367   -1241.7966   -1067.3675   -1241.7966     222.6889    11368.207            0            0   -12832.692   -8.9596851   -330.71028    14.392415    14.392415    14.392415    2981.2683 
  137000    310.62825    -1253.856   -1077.0046    -1253.856    215.53449    11362.621            0            0   -12832.012   -9.0402643   -667.52181    14.349526    14.349526    14.349526    2954.6951 
  137500    307.32366   -1240.6345   -1065.6644   -1240.6345    217.87074    11373.228            0            0   -12831.733   -9.1293048   -185.20738    14.302722    14.302722    14.302722    2925.8772 
  138000    307.09821   -1245.4414   -1070.5997   -1245.4414    246.02939    11340.909            0            0   -12832.379    -8.931185     1496.209    14.407708    14.407708    14.407708    2990.7817 
  138500    300.39544   -1229.3422   -1058.3167   -1229.3422    205.89871    11395.916            0            0   -12831.157   -8.7510627   -1484.1767    14.505889    14.505889    14.505889    3052.3407 
  139000    304.36958   -1232.2905   -1059.0023   -1232.2905     206.2068     11394.19            0            0   -12832.688   -9.1186014   -774.71934    14.308316    14.308316    14.308316    2929.3116 
  139500    324.86281   -1238.3551   -1053.3994   -1238.3551    240.46473    11352.879            0            0   -12831.699    -8.781776    1162.1869    14.488958    14.488958    14.488958    3041.6655 
  140000    316.51807   -1230.9236   -1050.7189   -1230.9236    202.36604    11399.437            0            0   -12832.727   -8.9744566   -1153.2498    14.384515    14.384515    14.384515    2976.3612 
  140500    326.03419   -1242.3948   -1056.7723   -1242.3948    219.65717    11368.548            0            0     -12830.6   -9.0062967   -234.08804    14.367543    14.367543    14.367543    2965.8389 
  141000    315.28709   -1234.3774   -1054.8736   -1234.3774    256.27255    11341.798            0            0   -12832.448    -9.172817    3241.4149    14.280071    14.280071    14.280071     2911.998 
  141500    290.80712   -1243.1815   -1077.6149   -1243.1815    210.39738    11378.733            0            0   -12832.312   -9.3752887   -361.28567    14.176523    14.176523    14.176523    2849.1096 
  142000    279.22101   -1251.7159   -1092.7457   -1251.7159    230.27542     11351.34            0            0   -12833.332   -9.3099154    203.63822    14.209627    14.209627    14.209627    2869.1157 
  142500    302.28373   -1232.7384   -1060.6378   -1232.7384    236.18678    11363.423            0            0   -12832.348   -9.1693312    1446.6419     14.28188     14.28188     14.28188     2913.105 
  143000    291.52993   -1268.3013   -1102.3232   -1268.3013    249.28224     11316.62            0            0   -12834.203   -9.1983483    997.17043    14.266846    14.266846    14.266846    2903.9153 
  143500    302.42866   -1246.5551    -1074.372   -1246.5551    244.85809    11339.427            0            0   -12830.841   -9.0595897    1633.6095    14.339316    14.339316    14.339316    2948.3923 
  144000    313.58272   -1255.3115    -1076.778   -1255.3115    223.44736    11352.696            0            0   -12831.455   -9.2630892    172.21857    14.233531    14.233531    14.233531    2883.6195 
  144500    293.35346   -1235.6607   -1068.6444   -1235.6607    219.64873    11377.052            0            0   -12832.362   -9.1283985   -376.36194    14.303195    14.303195    14.303195    2926.1677 
  145000    284.63366     -1231.49   -1069.4382     -1231.49    189.77938    11411.704            0            0   -12832.974   -9.1582051   -1920.6631    14.287661    14.287661    14.287661    2916.6441 
  145500    290.43176   -1227.6626   -1062.3097   -1227.6626    198.28594    11406.816            0            0   -12832.764   -9.1123374   -1246.3363    14.311594    14.311594    14.311594    2931.3253 
  146000    291.05086   -1272.3867   -1106.6814   -1272.3867    267.28887    11293.799            0            0   -12833.474   -9.3203782    2032.6079    14.204308    14.204308    14.204308     2865.895 
  146500    295.58059   -1261.5464   -1093.2621   -1261.5464    221.59147    11349.845            0            0   -12832.983   -9.1790577   -620.86767    14.276834    14.276834    14.276834    2910.0182 
  147000    321.13915   -1243.7052   -1060.8695   -1243.7052    230.59177    11357.318            0            0   -12831.615   -9.1536006    503.78387    14.290057    14.290057    14.290057    2918.1112 
  147500    285.25319   -1226.2831   -1063.8785   -1226.2831    202.52262    11404.098            0            0   -12832.904   -9.1066808   -1028.7214    14.314556    14.314556    14.314556     2933.146 
  148000    290.20985   -1254.9523   -1089.7257   -1254.9523     206.4075    11371.696            0            0   -12833.056   -9.0999292    -1615.134    14.318096    14.318096    14.318096    2935.3222 
  148500    308.53178   -1251.4412   -1075.7833   -1251.4412    239.41755    11343.595            0            0   -12834.454   -9.2093583    1053.2464    14.261159    14.261159    14.261159    2900.4436 
  149000    297.74617    -1253.319   -1083.8017    -1253.319    267.60878    11312.831            0            0   -12833.759   -9.0870372    2776.4408    14.324864    14.324864    14.324864    2939.4867 
  149500    283.79907   -1249.8527   -1088.2761   -1249.8527    227.30487    11356.298            0            0   -12833.456   -8.7732306   -1265.9054    14.493661    14.493661    14.493661    3044.6281 
  150000    291.73451   -1256.3813   -1090.2867   -1256.3813     246.8085    11327.136            0            0   -12830.326   -8.9563612    750.54164    14.394196    14.394196    14.394196    2982.3747 
  150500     325.5695   -1267.6476   -1082.2896   -1267.6476    247.22339    11316.489            0            0    -12831.36   -8.7333379   -88.265118    14.515695    14.515695    14.515695    3058.5356 
  151000    291.34498   -1262.3507   -1096.4779   -1262.3507      256.354    11313.987            0            0   -12832.691   -9.0104263    906.35468    14.365348    14.365348    14.365348    2964.4796 
  151500    311.89554   -1237.2449   -1059.6719   -1237.2449    217.75623    11377.619            0            0    -12832.62   -8.8578366   -1042.5228    14.447367    14.447367    14.447367    3015.5472 
  152000    329.16826   -1205.7054   -1018.2985   -1205.7054    218.22505     11407.83            0            0   -12831.761    -9.253767    1785.2679    14.238309    14.238309    14.238309    2886.5245 
  152500    303.16653   -1205.4896   -1032.8863   -1205.4896    223.12801     11402.52            0            0   -12831.137   -8.9636771    947.49392    14.390279    14.390279    14.390279    2979.9405 
  153000    289.81201   -1252.3513   -1087.3513   -1252.3513    225.66503    11355.141            0            0   -12833.157   -9.1298278   -38.807574    14.302449    14.302449    14.302449    2925.7096 
  153500    302.55627   -1229.1537   -1056.8979   -1229.1537     247.8749    11354.761            0            0    -12831.79   -9.0046258    1823.3099    14.368432    14.368432    14.368432    2966.3892 
  154000    309.92581   -1242.8113   -1066.3598   -1242.8113    226.51542    11360.976            0            0   -12830.303   -9.7344868    1886.8055    13.999964    13.999964    13.999964    2743.9787 
  154500    272.00152    -1263.579   -1108.7191    -1263.579    237.24703    11333.145            0            0   -12833.971   -9.4635237    1342.6119    14.132326    14.132326    14.132326    2822.5454 
  155000     349.4738   -1244.8348   -1045.8672   -1244.8348    211.51647    11375.952            0            0   -12832.303   -9.4727043    -48.81891    14.127759    14.127759    14.127759    2819.8098 
  155500    269.94529   -1234.3299   -1080.6407   -1234.3299    228.91315     11369.32            0            0   -12832.563   -9.1077872    173.28192    14.313977    14.313977    14.313977    2932.7897 
  156000    285.31886   -1234.0525   -1071.6106   -1234.0525    225.34985    11372.527            0            0   -12831.929   -9.1797051    413.71876    14.276498    14.276498    14.276498     2909.813 
  156500    313.82712    -1214.964   -1036.2913    -1214.964    230.50244    11383.395            0            0   -12828.861   -9.0945472    1463.3214     14.32092     14.32092     14.32092    2937.0594 
  157000    306.64368    -1252.495   -1077.9121    -1252.495    243.08261    11337.337            0            0   -12832.915   -9.1634921    1307.3087    14.284913    14.284913    14.284913    2914.9613 
  157500    319.92148   -1245.1828   -1063.0404   -1245.1828    190.95907    11396.882            0            0   -12833.024   -9.3924107   -1731.8746    14.167903    14.167903    14.167903    2843.9158 
  158000     285.1469   -1243.0512   -1080.7071   -1243.0512    220.94237    11369.027            0            0   -12833.021   -9.3847623     634.5404    14.171751    14.171751    14.171751    2846.2335 
  158500    280.07593   -1260.5809    -1101.124   -1260.5809    242.06971    11332.037            0            0   -12834.688   -9.5002777    1485.7877    14.114078    14.114078    14.114078    2811.6257 
  159000    320.86358   -1230.9216   -1048.2428   -1230.9216    194.27924    11407.552            0            0   -12832.753   -9.3307788   -1042.8659    14.199029    14.199029    14.199029    2862.7005 
  159500    298.78486   -1255.2764   -1085.1678   -1255.2764    215.33202    11363.539            0            0   -12834.148   -9.3693643    -343.7579     14.17951     14.17951     14.17951    2850.9111 
  160000    276.59362   -1228.6737   -1071.1993   -1228.6737    243.83615    11360.133            0            0   -12832.643    -9.474548    2746.3964    14.126842    14.126842    14.126842    2819.2611 
  160500    294.01967   -1241.4419   -1074.0463   -1241.4419    255.00391    11336.191            0            0   -12832.637   -9.1082659    2491.1234    14.313726    14.313726    14.313726    2932.6356 
  161000    282.06238   -1261.7373   -1101.1494   -1261.7373    248.10597    11322.744            0            0   -12832.588   -9.3083657    1753.2427    14.210416    14.210416    14.210416    2869.5934 
  161500    287.83246   -1272.1514   -1108.2784   -1272.1514     236.8977    11323.685            0            0   -12832.734    -9.285249    659.06441    14.222199    14.222199    14.222199    2876.7376 
  162000     307.1289   -1259.3897   -1084.5306   -1259.3897    244.80556    11328.412            0            0   -12832.608   -9.0866588    966.37617    14.325063    14.325063    14.325063    2939.6091 
  162500     287.5164   -1252.9026   -1089.2095   -1252.9026    205.39507    11372.617            0            0   -12830.915    -9.231704   -1212.7098    14.249643    14.249643    14.249643     2893.423 
  163000    297.11833   -1201.0597   -1031.8999   -1201.0597    200.66697    11430.623            0            0   -12832.349   -9.3745022    326.46366    14.176919    14.176919    14.176919    2849.3486 
  163500    293.32921   -1228.8521   -1061.8496   -1228.8521    227.78843    11376.102            0            0   -12832.743   -9.3944015    1027.5774    14.166902    14.166902    14.166902    2843.3131 
  164000    297.35234   -1231.9064   -1062.6134   -1231.9064    205.83644    11394.988            0            0   -12832.731   -9.2451237   -857.57995    14.242745    14.242745    14.242745    2889.2231 
  164500    296.74201   -1244.4492   -1075.5037   -1244.4492    233.29351     11353.66            0            0   -12831.402   -9.0588106    341.40342    14.339727    14.339727    14.339727    2948.6459 
  165000    263.00022    -1245.983   -1096.2478    -1245.983    228.25194    11359.353            0            0   -12833.588    -8.887603   -549.69124     14.43122     14.43122     14.43122    3005.4476 
  165500    299.54807   -1226.9661    -1056.423   -1226.9661    214.46774    11389.906            0            0    -12831.34   -9.0996698   -101.43291    14.318232    14.318232    14.318232    2935.4059 
  166000    322.94166    -1247.721   -1063.8591    -1247.721    252.10704    11333.637            0            0   -12833.465     -8.96337    1307.2903    14.390443    14.390443    14.390443    2980.0426 
  166500    312.09704   -1213.6271   -1035.9394   -1213.6271    240.80388    11376.912            0            0   -12831.343   -8.4781511    807.06232    14.659896    14.659896    14.659896    3150.5955 
  167000    326.93813   -1207.7701   -1021.6328   -1207.7701    217.64037    11404.453            0            0   -12829.864   -8.9701718     1085.262    14.386805    14.386805    14.386805     2977.783 
  167500    286.97259   -1232.7836   -1069.4002   -1232.7836    262.08815    11334.556            0            0   -12829.428   -9.4696315    4084.4208    14.129287    14.129287    14.129287    2820.7248 
  168000    304.40532   -1220.1551   -1046.8466   -1220.1551    238.13982    11373.179            0            0   -12831.474   -9.5372028     3176.721    14.095839    14.095839    14.095839    2800.7399 
  168500     289.8054   -1220.5126   -1055.5163   -1220.5126    210.08742    11402.942            0            0   -12833.542   -9.1469428   -371.26035    14.293523    14.293523    14.293523    2920.2352 
  169000    294.65469   -1210.1239   -1042.3668   -1210.1239    201.63351    11420.073            0            0    -12831.83   -9.4178537    449.50074    14.155133    14.155133    14.155133    2836.2327 
  169500    317.06553   -1240.2514    -1059.735   -1240.2514    194.83678    11397.778            0            0   -12832.866   -9.7808466    285.46601     13.97781     13.97781     13.97781    2730.9727 
  170000    303.48608   -1230.2497   -1057.4645   -1230.2497    198.21245    11404.094            0            0   -12832.557   -9.8607829    596.44374    13.939937    13.939937    13.939937    2708.8341 
  170500    303.23854   -1239.8197   -1067.1755   -1239.8197    203.79553    11390.174            0            0    -12833.79   -9.5771544   -165.77443    14.076211    14.076211    14.076211    2789.0565 
  171000    324.23798   -1252.5338   -1067.9338   -1252.5338    236.15763    11343.357            0            0   -12832.048   -9.4702449    1657.9666    14.128982    14.128982    14.128982    2820.5421 
  171500    308.82795    -1242.484   -1066.6576    -1242.484     220.4506    11369.773            0            0   -12832.708   -9.3444504    27.709185    14.192101    14.192101    14.192101    2858.5121 
  172000      292.348   -1247.8021   -1081.3582   -1247.8021    221.07601    11364.349            0            0   -12833.227   -9.4222411     395.8417    14.152936    14.152936    14.152936     2834.912 
  172500    305.71227   -1240.6054   -1066.5528   -1240.6054    222.78401    11368.809            0            0   -12832.198   -9.8597106    2550.4905    13.940442    13.940442    13.940442    2709.1287 
  173000    292.98312   -1250.8532   -1084.0477   -1250.8532    213.11686     11371.35            0            0    -12835.32   -9.6871403    843.53998    14.022735    14.022735    14.022735    2757.3901 
  173500    296.50264   -1251.4575   -1082.6483   -1251.4575    250.86316    11330.853            0            0   -12833.173   -9.5585611    3172.7527    14.085332    14.085332    14.085332    2794.4818 
  174000    298.53117   -1242.6449   -1072.6807   -1242.6449    245.79877    11345.837            0            0   -12834.281   -9.7923534    3432.6094    13.972332    13.972332    13.972332    2727.7635 
  174500    281.21844   -1241.0698   -1080.9624   -1241.0698    161.22266    11431.275            0            0   -12833.568   -9.7015866    -3202.598    14.015772    14.015772    14.015772    2753.2842 
  175000     275.9939   -1248.7246   -1091.5917   -1248.7246    192.37408    11393.135            0            0   -12834.233   -9.6528817   -1200.0845    14.039305    14.039305    14.039305    2767.1762 
  175500    311.12888   -1222.1517   -1045.0152   -1222.1517    189.55518    11421.377            0            0   -12833.084   -9.4357476   -1178.8399    14.146179    14.146179    14.146179    2830.8541 
  176000    310.58569   -1234.1265   -1057.2993   -1234.1265    176.48793    11422.405            0            0   -12833.019   -9.6004006   -1912.7026    14.064841    14.064841    14.064841    2782.3032 
  176500    308.83938   -1216.3231   -1040.4901   -1216.3231    197.77778    11416.122            0            0   -12830.223   -9.5312942   -75.687907    14.098751    14.098751    14.098751    2802.4762 
  177000    311.85367   -1213.6151    -1036.066   -1213.6151    184.56164    11433.325            0            0   -12831.502   -9.2142397   -1313.0507     14.25864     14.25864     14.25864    2898.9071 
  177500    308.15723   -1212.4772   -1037.0326   -1212.4772    192.17342    11428.403            0            0   -12833.054   -9.7852517    481.44396    13.975712    13.975712    13.975712    2729.7433 
  178000    298.83604     -1237.03   -1066.8922     -1237.03     218.1285    11377.804            0            0   -12832.962   -9.5213205    603.83391    14.103672    14.103672    14.103672    2805.4118 
  178500    273.18438   -1251.2387   -1095.7054   -1251.2387    240.05472    11342.427            0            0    -12833.72   -9.5224858    2101.3455    14.103097    14.103097    14.103097    2805.0685 
  179000    311.20753   -1238.4185   -1061.2372   -1238.4185    207.61524    11386.872            0            0   -12832.906   -9.6080254    124.53474    14.061119    14.061119    14.061119    2780.0951 
  179500    324.63493   -1217.9213   -1033.0954   -1217.9213     179.7916    11432.911            0            0   -12830.624    -8.858944   -2563.4166    14.446765    14.446765    14.446765    3015.1703 
  180000    290.69442    -1236.194   -1070.6916    -1236.194    226.20634    11369.627            0            0   -12832.028   -9.1160074    837.99449    14.309673    14.309673    14.309673    2930.1451 
  180500    287.66159   -1232.4115   -1068.6358   -1232.4115    226.97447    11373.984            0            0    -12833.37   -9.4034627    1154.4868     14.16235     14.16235     14.16235    2840.5733 
  181000    289.52338   -1231.2662   -1066.4305   -1231.2662    186.45632    11414.456            0            0   -12832.179   -9.6963583   -371.62243     14.01829     14.01829     14.01829    2754.7687 
  181500    317.19049   -1216.9959   -1036.4084   -1216.9959    187.74015    11428.111            0            0   -12832.848   -9.3552768     -1036.89    14.186624    14.186624    14.186624    2855.2041 
  182000    283.57191    -1224.339   -1062.8917    -1224.339    162.66753    11447.287            0            0   -12834.293    -9.514088   -3149.5232    14.107245    14.107245    14.107245    2807.5444 
  182500    309.94252   -1221.9088   -1045.4478   -1221.9088    202.38891    11408.622            0            0    -12832.92    -9.293235   -209.36025    14.218124    14.218124    14.218124    2874.2655 
  183000    285.06323   -1222.7362   -1060.4398   -1222.7362    188.79716    11419.787            0            0    -12831.32   -9.3134678   -1355.4174     14.20782     14.20782     14.20782    2868.0214 
  183500    306.52331   -1227.9634    -1053.449   -1227.9634    199.79608    11402.526            0            0   -12830.286   -9.2042096   -1211.6055    14.263817    14.263817    14.263817    2902.0661 
  184000    303.12503   -1219.3869   -1046.8073   -1219.3869    225.64071    11386.472            0            0   -12831.499   -9.2563591    1461.9473     14.23698     14.23698     14.23698    2885.7161 
  184500    312.32384   -1239.9824   -1062.1655   -1239.9824    229.64148    11363.466            0            0    -12833.09   -9.2058637    575.92656    14.262963    14.262963    14.262963    2901.5447 
  185000    260.89508   -1245.9777    -1097.441   -1245.9777    231.84166     11356.51            0            0    -12834.33   -9.3101047    1059.0441    14.209531    14.209531    14.209531    2869.0574 
  185500    295.47649   -1260.5167   -1092.2917   -1260.5167    215.66516    11356.569            0            0   -12832.751   -9.1882683   -1470.7951    14.272062    14.272062    14.272062    2907.1011 
  186000    328.46682    -1236.943   -1049.9355    -1236.943     211.5632    11384.487            0            0   -12832.993   -9.1244973   -511.42867    14.305234    14.305234    14.305234    2927.4188 
  186500    304.95689   -1245.1479   -1071.5254   -1245.1479     206.7305    11380.713            0            0   -12832.591    -8.936389   -1899.7885    14.404911    14.404911    14.404911    2989.0401 
  187000    300.59594   -1252.0244   -1080.8847   -1252.0244    217.51179    11363.439            0            0   -12832.975   -9.1060628   -618.24151     14.31488     14.31488     14.31488    2933.3451 
  187500    317.48572   -1231.8812   -1051.1256   -1231.8812    222.35063     11379.66            0            0   -12833.892   -9.5305535    1262.3146    14.099116    14.099116    14.099116    2802.6939 
  188000    287.36937   -1227.3039   -1063.6945   -1227.3039    243.80641    11358.714            0            0   -12829.825   -9.4123019    2436.7432    14.157916    14.157916    14.157916    2837.9056 
  188500    281.77577    -1225.157   -1064.7322    -1225.157    187.31114    11417.756            0            0   -12830.224   -9.2135053   -2021.3195    14.259019    14.259019    14.259019    2899.1381 
  189000    315.44359    -1220.167   -1040.5741    -1220.167    224.84326    11389.302            0            0   -12834.312   -9.4171162    1939.3423    14.155503    14.155503    14.155503    2836.4548 
  189500    316.18123    -1246.136   -1066.1231    -1246.136    203.84627    11381.215            0            0   -12831.198   -9.5026367   -720.95253     14.11291     14.11291     14.11291    2810.9277 
  190000    281.29298   -1230.4841   -1070.3343   -1230.4841    225.69357    11375.292            0            0    -12831.47    -9.585364    1946.7906    14.072191    14.072191    14.072191    2786.6677 
  190500    305.61838   -1246.0505   -1072.0514   -1246.0505    213.81786    11372.647            0            0   -12832.515   -8.9773798    -870.0483    14.382953    14.382953    14.382953    2975.3921 
  191000    309.74582     -1233.93   -1057.5809     -1233.93    225.06645    11373.003            0            0       -12832   -9.4010127    1517.1261     14.16358     14.16358     14.16358    2841.3136 
  191500    309.74205   -1239.2907   -1062.9438   -1239.2907      230.865    11363.196            0            0   -12833.352     -9.32126    1050.6669     14.20386     14.20386     14.20386    2865.6238 
  192000    303.87192   -1241.3146   -1068.3098   -1241.3146    184.50782    11405.067            0            0   -12830.889   -9.2122875   -2237.2835    14.259647    14.259647    14.259647    2899.5214 
  192500    274.15466   -1232.9407   -1076.8549   -1232.9407    224.27906    11373.522            0            0   -12830.742   -9.3580731    888.03666    14.185211    14.185211    14.185211    2854.3509 
  193000    309.10511    -1236.613   -1060.6287    -1236.613    223.30135    11373.389            0            0   -12833.303   -8.6952848   -511.92111     14.53684     14.53684     14.53684    3071.9206 
  193500    328.18175   -1230.9033    -1044.058   -1230.9033    204.28536    11397.208            0            0   -12832.397   -8.8312848   -1711.7048    14.461832    14.461832    14.461832    3024.6137 
  194000    295.95813   -1216.8046   -1048.3054   -1216.8046    192.41032    11423.274            0            0   -12832.489   -9.0619449    -1378.757    14.338073    14.338073    14.338073     2947.626 
  194500    312.71401    -1236.856   -1058.8171    -1236.856    193.12489    11403.285            0            0   -12833.266   -9.1648501   -1957.1596    14.284207    14.284207    14.284207    2914.5294 
  195000     292.6989   -1221.1771   -1054.5334   -1221.1771    180.07409    11431.023            0            0   -12832.275   -9.3206644   -1755.8766    14.204163    14.204163    14.204163     2865.807 
  195500    316.39309   -1208.2085   -1028.0749   -1208.2085    200.40525    11424.467            0            0    -12833.08   -9.4442939    638.11386    14.141911    14.141911    14.141911    2828.2924 
  196000    328.62899   -1238.6674   -1051.5675   -1238.6674    191.49761    11402.884            0            0    -12833.05   -9.4690308   -748.68116    14.129586    14.129586    14.129586    2820.9038 
  196500    292.93781   -1232.9061   -1066.1264   -1232.9061    205.65821    11391.541            0            0   -12830.105   -9.7775155    831.95281    13.979397    13.979397    13.979397    2731.9031 
  197000    269.88356   -1254.1166   -1100.4625   -1254.1166    203.69314    11374.938            0            0   -12832.748   -9.2590415   -1202.7749    14.235605    14.235605    14.235605    2884.8801 
  197500    301.97485    -1261.987   -1090.0622    -1261.987      233.012    11337.833            0            0   -12832.832     -9.24333    467.02759    14.243666    14.243666    14.243666    2889.7838 
  198000    298.03054   -1261.0837   -1091.4046   -1261.0837    239.74512    11330.784            0            0   -12831.613   -9.5136881    1616.2182    14.107443    14.107443    14.107443    2807.6624 
  198500    324.55073   -1227.6727   -1042.8947   -1227.6727    168.01916    11438.767            0            0   -12834.459   -9.3588253   -2846.4028    14.184831    14.184831    14.184831    2854.1215 
  199000    315.34445   -1218.8591   -1039.3226   -1218.8591     190.2128    11424.473            0            0   -12833.545    -9.545825   -426.13213    14.091594    14.091594    14.091594    2798.2102 
  199500    286.11569   -1242.5413   -1079.6458   -1242.5413    223.26497    11367.046            0            0   -12832.852   -9.2707513    320.07428    14.229609    14.229609    14.229609    2881.2363 
  200000     319.6007   -1257.5217    -1075.562   -1257.5217    240.33741    11333.196            0            0   -12831.055   -9.0445853    966.22362    14.347241    14.347241    14.347241    2953.2835 
Loop time of 577.593 on 8 procs for 200000 steps with 288 atoms

Performance: 59.835 ns/day, 0.401 hours/ns, 346.265 timesteps/s
96.9% CPU use with 8 MPI tasks x no OpenMP threads

MPI task timing breakdown:
Section |  min time  |  avg time  |  max time  |%varavg| %total
---------------------------------------------------------------
Pair    | 225.42     | 239.26     | 245.69     |  36.8 | 41.42
Bond    | 0.22651    | 0.24526    | 0.2777     |   3.2 |  0.04
Kspace  | 168.23     | 174.64     | 188.5      |  43.1 | 30.24
Neigh   | 12.461     | 12.472     | 12.484     |   0.2 |  2.16
Comm    | 55.83      | 60.248     | 65.361     |  55.0 | 10.43
Output  | 2.7493     | 2.7551     | 2.7836     |   0.7 |  0.48
Modify  | 69.683     | 80.56      | 89.52      |  99.0 | 13.95
Other   |            | 7.412      |            |       |  1.28

Nlocal:    36 ave 41 max 32 min
Histogram: 1 1 1 1 1 1 0 0 1 1
Nghost:    2288 ave 2300 max 2278 min
Histogram: 3 0 0 1 1 0 0 1 0 2
Neighs:    9286 ave 10899 max 8119 min
Histogram: 2 1 0 2 1 0 0 0 0 2

Total # of neighbors = 74288
Ave neighs/atom = 257.944
Ave special neighs/atom = 2
Neighbor list builds = 10822
Dangerous builds = 232

unfix		1
unfix		2
unfix		3

write_data	data.final
PPPM initialization ...
  extracting TIP4P info from pair style
  using 12-bit tables for long-range coulomb (../kspace.cpp:323)
  G vector (1/distance) = 0.340884
  grid = 12 12 12
  stencil order = 5
  estimated absolute RMS force accuracy = 0.0157988
  estimated relative force accuracy = 4.75775e-05
  using double precision KISS FFT
  3d grid and FFT values/proc = 2197 288
Total wall time: 0:09:37
